%nprocshared=16
%mem=16GB
%chk=DDL-LR-11.chk
#p CAM-B3LYP TZVP em=gd3bj td(nstates=6,root=1) scrf=(Solvent=Water)

Title Card Required

0 1
  O       2.754165     -1.558174      0.710229
  O      -3.284086     -1.650700     -1.000686
  N      -0.690616      1.519341      0.062084
  H      -0.997037      2.475888     -0.007087
  C      -1.242913     -0.761470     -0.158859
  C       0.651467      1.304966      0.239780
  C      -1.612370      0.540059     -0.246059
  C      -2.153583     -1.825457     -0.497801
  C       0.124935     -1.116017      0.372261
  H       0.049679     -1.486754      1.402056
  H       0.546824     -1.940812     -0.199812
  C       1.106755      0.031924      0.330581
  C       2.498851     -0.380730      0.463597
  C      -2.940042      1.074134     -0.651439
  H      -3.155308      2.023381     -0.156284
  H      -2.987064      1.246425     -1.728355
  H      -3.762779      0.403385     -0.416257
  C      -1.772270     -3.252262     -0.237951
  H      -2.637166     -3.905055     -0.123555
  H      -1.183761     -3.652141     -1.068900
  H      -1.160194     -3.382275      0.654600
  C       3.659333      0.564385      0.276301
  H       3.520344      1.253768     -0.552213
  H       3.824826      1.150999      1.181167
  H       4.546052     -0.039921      0.100847
  C       1.429985      2.583376      0.303496
  H       2.222818      2.549866      1.041409
  H       1.871328      2.821139     -0.665049
  H       0.771830      3.408734      0.571899








