%nprocshared=16
%mem=16GB
%chk=DDL-LR-4.chk
#p CAM-B3LYP TZVP em=gd3bj td(nstates=6,root=1) scrf=(Solvent=Water)

Title Card Required

0 1
  O       2.762800     -1.553973      0.680952
  O      -3.359321     -1.662849     -0.804642
  N      -0.664690      1.524611     -0.045964
  H      -0.974729      2.478783     -0.128956
  C      -1.238131     -0.770933     -0.169935
  C       0.663330      1.314369      0.170546
  C      -1.607714      0.536478     -0.281604
  C      -2.148582     -1.828070     -0.412963
  C       0.164021     -1.126902      0.263888
  H       0.144313     -1.587195      1.257873
  H       0.574685     -1.889653     -0.399012
  C       1.125740      0.039615      0.283965
  C       2.507476     -0.365344      0.476809
  C      -2.947134      1.070026     -0.634893
  H      -3.286739      1.816967      0.088652
  H      -2.945867      1.543963     -1.620083
  H      -3.721090      0.304598     -0.666836
  C      -1.817865     -3.277815     -0.220569
  H      -2.582471     -3.819080      0.340487
  H      -1.716602     -3.786094     -1.183842
  H      -0.880149     -3.424034      0.310250
  C       3.670128      0.595361      0.415760
  H       3.612602      1.278802     -0.427562
  H       3.729548      1.190480      1.327841
  H       4.578217      0.002678      0.337452
  C       1.443570      2.592367      0.248339
  H       2.151010      2.593285      1.070314
  H       1.993586      2.774880     -0.674766
  H       0.770060      3.434681      0.398499








