%nprocshared=16
%mem=16GB
%chk=DDL-LR-3.chk
#p CAM-B3LYP TZVP em=gd3bj td(nstates=6,root=1) scrf=(Solvent=Water)

Title Card Required

0 1
  O       2.764018     -1.553070      0.676186
  O      -3.368916     -1.662261     -0.774467
  N      -0.661190      1.524926     -0.061796
  H      -0.971768      2.478770     -0.146514
  C      -1.237669     -0.772792     -0.171540
  C       0.664999      1.315519      0.160273
  C      -1.607426      0.535828     -0.286741
  C      -2.147465     -1.829629     -0.400695
  C       0.169337     -1.128956      0.247799
  H       0.157696     -1.603062      1.235141
  H       0.577797     -1.882381     -0.427447
  C       1.128333      0.040277      0.277030
  C       2.508753     -0.362918      0.478441
  C      -2.949155      1.069564     -0.632280
  H      -3.304050      1.781903      0.118454
  H      -2.941891      1.584218     -1.596993
  H      -3.710101      0.293280     -0.703490
  C      -1.823322     -3.283357     -0.218529
  H      -2.560177     -3.803050      0.397662
  H      -1.794310     -3.800410     -1.181720
  H      -0.854372     -3.428069      0.252306
  C       3.671141      0.599729      0.436092
  H       3.625629      1.282374     -0.408689
  H       3.715037      1.196016      1.348245
  H       4.581655      0.009052      0.372107
  C       1.445704      2.593553      0.240132
  H       2.139990      2.599530      1.073394
  H       2.011057      2.767906     -0.675135
  H       0.770667      3.437511      0.372773








