%nprocshared=16
%mem=16GB
%chk=DDL-LR-10.chk
#p CAM-B3LYP TZVP em=gd3bj td(nstates=6,root=1) scrf=(Solvent=Water)

Title Card Required

0 1
  O       2.755473     -1.557823      0.706056
  O      -3.296014     -1.653497     -0.973651
  N      -0.686622      1.520378      0.046546
  H      -0.993362      2.476631     -0.024841
  C      -1.242073     -0.762503     -0.160459
  C       0.653310      1.306439      0.229805
  C      -1.611443      0.539659     -0.251040
  C      -2.153442     -1.824971     -0.485530
  C       0.130902     -1.117389      0.356546
  H       0.063954     -1.500358      1.382209
  H       0.551226     -1.933767     -0.229139
  C       1.109638      0.033294      0.323739
  C       2.500127     -0.378668      0.465556
  C      -2.940612      1.073239     -0.648830
  H      -3.175574      1.998230     -0.117181
  H      -2.979990      1.290297     -1.718196
  H      -3.760355      0.386720     -0.450441
  C      -1.779893     -3.254785     -0.235175
  H      -2.642020     -3.896807     -0.053949
  H      -1.254733     -3.673948     -1.098671
  H      -1.112143     -3.388600      0.615599
  C       3.661336      0.568976      0.296378
  H       3.534019      1.257471     -0.534773
  H       3.811569      1.156844      1.203028
  H       4.551667     -0.033855      0.134837
  C       1.431880      2.584757      0.295544
  H       2.212928      2.556175      1.046299
  H       1.889223      2.814656     -0.667357
  H       0.771026      3.413205      0.547092








