%nprocshared=16
%mem=16GB
%chk=DDL-LR-15.chk
#p CAM-B3LYP TZVP em=gd3bj td(nstates=6,root=1) scrf=(Solvent=Water)

Title Card Required

0 1
  O       2.748457     -1.558493      0.728631
  O      -3.229811     -1.640047     -1.109803
  N      -0.708239      1.514503      0.125750
  H      -1.015135      2.471748      0.065893
  C      -1.246662     -0.758185     -0.152331
  C       0.642999      1.298798      0.281400
  C      -1.617029      0.541347     -0.226974
  C      -2.150747     -1.830756     -0.548098
  C       0.099297     -1.110256      0.437972
  H      -0.011436     -1.430557      1.482325
  H       0.527635     -1.967623     -0.076512
  C       1.094450      0.025882      0.359932
  C       2.493394     -0.388562      0.456048
  C      -2.938510      1.079914     -0.665233
  H      -3.066702      2.107657     -0.324655
  H      -3.017391      1.069499     -1.752774
  H      -3.762425      0.480730     -0.289131
  C      -1.736888     -3.247363     -0.248883
  H      -2.579158     -3.920175     -0.391694
  H      -0.933239     -3.558549     -0.920409
  H      -1.358799     -3.359940      0.767697
  C       3.649444      0.544916      0.194007
  H       3.462531      1.237932     -0.621924
  H       3.877655      1.126336      1.088789
  H       4.519314     -0.064837     -0.038473
  C       1.422179      2.577496      0.336861
  H       2.261569      2.523773      1.019304
  H       1.796621      2.847159     -0.651685
  H       0.776628      3.387655      0.673968








