%nprocshared=16
%mem=16GB
%chk=DDL-LR-5.chk
#p CAM-B3LYP TZVP em=gd3bj td(nstates=6,root=1) scrf=(Solvent=Water)

Title Card Required

0 1
  O       2.761600     -1.554800      0.685455
  O      -3.349484     -1.662685     -0.834176
  N      -0.668206      1.524175     -0.030338
  H      -0.977661      2.478693     -0.111566
  C      -1.238650     -0.769220     -0.168342
  C       0.661688      1.313171      0.180627
  C      -1.608110      0.537101     -0.276462
  C      -2.149661     -1.826832     -0.425126
  C       0.158690     -1.125012      0.279636
  H       0.131089     -1.571735      1.279858
  H       0.571278     -1.897018     -0.370795
  C       1.123144      0.038834      0.290723
  C       2.506236     -0.367699      0.475078
  C      -2.945472      1.070463     -0.637338
  H      -3.269131      1.850717      0.057593
  H      -2.950371      1.503009     -1.641167
  H      -3.730785      0.316505     -0.630020
  C      -1.812235     -3.272897     -0.222710
  H      -2.601960     -3.834539      0.280124
  H      -1.638100     -3.770276     -1.181483
  H      -0.910027     -3.419224      0.367242
  C       3.668998      0.591010      0.395646
  H       3.599632      1.275260     -0.446055
  H       3.743751      1.184948      1.307415
  H       4.574520     -0.003572      0.303218
  C       1.441514      2.591164      0.256382
  H       2.161785      2.587087      1.066957
  H       1.976228      2.781723     -0.674172
  H       0.769700      3.431651      0.423795








