%nprocshared=16
%mem=16GB
%chk=DDL-LR-6.chk
#p CAM-B3LYP TZVP em=gd3bj td(nstates=6,root=1) scrf=(Solvent=Water)

Title Card Required

0 1
  O       2.760405     -1.555555      0.689751
  O      -3.339402     -1.661837     -0.863072
  N      -0.671754      1.523624     -0.014867
  H      -0.980603      2.478498     -0.094279
  C      -1.239227     -0.767642     -0.166759
  C       0.660059      1.311921      0.190560
  C      -1.608605      0.537690     -0.271327
  C      -2.150677     -1.825896     -0.437212
  C       0.153319     -1.123275      0.295133
  H       0.117930     -1.556706      1.301188
  H       0.567617     -1.904442     -0.342689
  C       1.120531      0.037935      0.297356
  C       2.505018     -0.369993      0.473265
  C      -2.944110      1.070901     -0.639660
  H      -3.251220      1.883088      0.025267
  H      -2.955389      1.461451     -1.660282
  H      -3.739176      0.329041     -0.593283
  C      -1.806385     -3.268498     -0.224969
  H      -2.618101     -3.849245      0.216945
  H      -1.559398     -3.753110     -1.174406
  H      -0.943859     -3.413760      0.422595
  C       3.667745      0.586662      0.375697
  H       3.586679      1.271735     -0.464221
  H       3.757683      1.179408      1.286921
  H       4.570556     -0.009722      0.269314
  C       1.439520      2.589940      0.264299
  H       2.172341      2.580919      1.063334
  H       1.958935      2.788452     -0.673345
  H       0.769569      3.428417      0.448744








