%nprocshared=16
%mem=16GB
%chk=DDL-LR-16.chk
#p CAM-B3LYP TZVP em=gd3bj td(nstates=6,root=1) scrf=(Solvent=Water)

Title Card Required

0 1
  O       2.746842     -1.558273      0.733854
  O      -3.214155     -1.637944     -1.138025
  N      -0.713144      1.513159      0.142165
  H      -1.020715      2.470417      0.084584
  C      -1.247660     -0.757531     -0.150641
  C       0.640538      1.297188      0.292423
  C      -1.618465      0.541629     -0.222485
  C      -2.149030     -1.832974     -0.561083
  C       0.092392     -1.108731      0.455320
  H      -0.027787     -1.415440      1.502958
  H       0.522157     -1.974184     -0.043742
  C       1.091138      0.024223      0.367923
  C       2.491910     -0.390429      0.454266
  C      -2.938366      1.082053     -0.669893
  H      -3.042371      2.124383     -0.369161
  H      -3.025132      1.025379     -1.755047
  H      -3.760007      0.502889     -0.260133
  C      -1.726570     -3.248008     -0.251372
  H      -2.556804     -3.919421     -0.454159
  H      -0.879426     -3.533296     -0.878665
  H      -1.407582     -3.354901      0.785820
  C       3.646440      0.539674      0.172721
  H       3.447097      1.233613     -0.639490
  H       3.890924      1.119744      1.064145
  H       4.511405     -0.071324     -0.074522
  C       1.420131      2.575934      0.345756
  H       2.271081      2.516962      1.013098
  H       1.776933      2.853738     -0.647137
  H       0.778227      3.381471      0.700522








