%nprocshared=16
%mem=16GB
%chk=DDL-LR-7.chk
#p CAM-B3LYP TZVP em=gd3bj td(nstates=6,root=1) scrf=(Solvent=Water)

Title Card Required

0 1
  O       2.759204     -1.556238      0.693894
  O      -3.329061     -1.660395     -0.891358
  N      -0.675348      1.522963      0.000492
  H      -0.983596      2.478196     -0.077036
  C      -1.239860     -0.766191     -0.165184
  C       0.658426      1.310621      0.200387
  C      -1.609189      0.538242     -0.266212
  C      -2.151603     -1.825250     -0.449251
  C       0.147883     -1.121674      0.310466
  H       0.104742     -1.542112      1.321957
  H       0.563745     -1.911874     -0.314602
  C       1.117886      0.036923      0.303914
  C       2.503810     -0.372231      0.471389
  C      -2.942991      1.071367     -0.641906
  H      -3.232976      1.914031     -0.008325
  H      -2.960894      1.419374     -1.677474
  H      -3.746286      0.342259     -0.556836
  C      -1.800272     -3.264538     -0.227351
  H      -2.630443     -3.863002      0.151442
  H      -1.481145     -3.734757     -1.162510
  H      -0.981368     -3.407799      0.475632
  C       3.666362      0.582304      0.355870
  H       3.573701      1.268212     -0.482107
  H       3.771379      1.173848      1.266314
  H       4.566313     -0.015794      0.235657
  C       1.437576      2.588692      0.272125
  H       2.182700      2.574766      1.059455
  H       1.941657      2.795086     -0.672273
  H       0.769650      3.424972      0.473430








