%nprocshared=16
%mem=16GB
%chk=DDL-LR-2.chk
#p CAM-B3LYP TZVP em=gd3bj td(nstates=6,root=1) scrf=(Solvent=Water)

Title Card Required

0 1
  O       2.765276     -1.552081      0.671101
  O      -3.378269     -1.660889     -0.743654
  N      -0.657692      1.525118     -0.077892
  H      -0.968745      2.478655     -0.164321
  C      -1.237265     -0.774805     -0.173162
  C       0.666710      1.316623      0.149759
  C      -1.607258      0.535158     -0.291865
  C      -2.146328     -1.831526     -0.388286
  C       0.174666     -1.131178      0.231272
  H       0.171332     -1.619313      1.211558
  H       0.580586     -1.875205     -0.456233
  C       1.130946      0.040823      0.269862
  C       2.510085     -0.360407      0.479962
  C      -2.951600      1.069062     -0.629463
  H      -3.321056      1.745587      0.147031
  H      -2.938439      1.623698     -1.571860
  H      -3.697858      0.282521     -0.739733
  C      -1.828655     -3.289658     -0.216557
  H      -2.535667     -3.786598      0.451436
  H      -1.870746     -3.813092     -1.175462
  H      -0.832708     -3.431256      0.194033
  C       3.672046      0.604128      0.456707
  H       3.638762      1.285992     -0.389364
  H       3.700171      1.201570      1.368688
  H       4.584846      0.015579      0.407301
  C       1.447932      2.594731      0.231724
  H       2.128693      2.605840      1.076185
  H       2.028694      2.760781     -0.675283
  H       0.771541      3.440143      0.346516








