%nprocshared=16
%mem=16GB
%chk=DDL-LR-9.chk
#p CAM-B3LYP TZVP em=gd3bj td(nstates=6,root=1) scrf=(Solvent=Water)

Title Card Required

0 1
  O       2.756746     -1.557378      0.701976
  O      -3.307440     -1.656124     -0.946491
  N      -0.682759      1.521332      0.031125
  H      -0.989931      2.477260     -0.042394
  C      -1.241283     -0.763631     -0.162046
  C       0.655073      1.307875      0.219942
  C      -1.610605      0.539222     -0.256069
  C      -2.153035     -1.824784     -0.473362
  C       0.136705     -1.118768      0.341052
  H       0.077853     -1.514042      1.362311
  H       0.555522     -1.926574     -0.257988
  C       1.112451      0.034591      0.317040
  C       2.501375     -0.376564      0.467518
  C      -2.941274      1.072502     -0.646417
  H      -3.195221      1.971588     -0.079476
  H      -2.973242      1.333794     -1.706352
  H      -3.756829      0.371028     -0.485348
  C      -1.787081     -3.257683     -0.232463
  H      -2.642520     -3.886944      0.015502
  H      -1.328318     -3.695054     -1.124430
  H      -1.065946     -3.395071      0.572529
  C       3.663169      0.573483      0.316305
  H       3.547442      1.261102     -0.517298
  H       3.798262      1.162590      1.224472
  H       4.556899     -0.027825      0.168583
  C       1.433769      2.586103      0.287690
  H       2.202954      2.562417      1.050937
  H       1.906876      2.808164     -0.669311
  H       0.770390      3.417389      0.522464








