%nprocshared=16
%mem=16GB
%chk=DDL-LR-0.chk
#p CAM-B3LYP TZVP em=gd3bj td(nstates=6,root=1) scrf=(Solvent=Water)

Title Card Required

0 1
  O       2.768019     -1.549781      0.659742
  O      -3.396275     -1.655867     -0.680071
  N      -0.650631      1.525121     -0.111194
  H      -0.962393      2.478124     -0.201082
  C      -1.236599     -0.779324     -0.176477
  C       0.670327      1.318725      0.127760
  C      -1.607335      0.533797     -0.302054
  C      -2.144057     -1.836397     -0.362876
  C       0.185498     -1.136119      0.196453
  H       0.199747     -1.652947      1.161306
  H       0.585158     -1.860989     -0.515561
  C       1.136326      0.041598      0.254590
  C       2.513005     -0.355051      0.482639
  C      -2.958043      1.067937     -0.623098
  H      -3.354071      1.669388      0.200783
  H      -2.932998      1.700178     -1.515270
  H      -3.669929      0.262626     -0.810041
  C      -1.839155     -3.305249     -0.212616
  H      -2.482293     -3.752816      0.548718
  H      -2.018635     -3.833184     -1.152220
  H      -0.801260     -3.435018      0.078473
  C       3.673564      0.613108      0.499163
  H       3.665590      1.293443     -0.348960
  H       3.669122      1.212807      1.410019
  H       4.590522      0.029248      0.479943
  C       1.452750      2.597098      0.214108
  H       2.105088      2.618751      1.080841
  H       2.064749      2.745969     -0.674916
  H       0.774195      3.444823      0.291904








