%nprocshared=16
%mem=16GB
%chk=DDL-LR-13.chk
#p CAM-B3LYP TZVP em=gd3bj td(nstates=6,root=1) scrf=(Solvent=Water)

Title Card Required

0 1
  O       2.751427     -1.558562      0.719013
  O      -3.258428     -1.645069     -1.054801
  N      -0.699066      1.517043      0.093581
  H      -1.005316      2.474055      0.029032
  C      -1.244722     -0.759673     -0.155624
  C       0.647479      1.301933      0.260181
  C      -1.614499      0.540755     -0.236315
  C      -2.152913     -1.827403     -0.522681
  C       0.112483     -1.113209      0.404481
  H       0.019936     -1.459270      1.441882
  H       0.537635     -1.954435     -0.139500
  C       1.100768      0.029010      0.344807
  C       2.496203     -0.384727      0.459747
  C      -2.939123      1.076525     -0.657522
  H      -3.112635      2.068912     -0.238316
  H      -3.001956      1.158024     -1.743732
  H      -3.764526      0.439851     -0.350575
  C      -1.755626     -3.248584     -0.243533
  H      -2.615211     -3.916270     -0.260681
  H      -1.051400     -3.606649     -0.999397
  H      -1.259343     -3.370497      0.719669
  C       3.654785      0.554903      0.235611
  H       3.492126      1.246089     -0.587038
  H       3.851247      1.138957      1.136057
  H       4.533589     -0.052217      0.031970
  C       1.426143      2.580507      0.319808
  H       2.242352      2.537014      1.030873
  H       1.834675      2.834114     -0.659257
  H       0.773917      3.398872      0.622258








