%nprocshared=16
%mem=16GB
%chk=DDL-LR-12.chk
#p CAM-B3LYP TZVP em=gd3bj td(nstates=6,root=1) scrf=(Solvent=Water)

Title Card Required

0 1
  O       2.752819     -1.558423      0.714536
  O      -3.271583     -1.647854     -1.027699
  N      -0.694759      1.518226      0.077759
  H      -1.001005      2.475031      0.010874
  C      -1.243798     -0.760528     -0.157247
  C       0.649528      1.303463      0.249896
  C      -1.613387      0.540424     -0.241145
  C      -2.153419     -1.826261     -0.510182
  C       0.118796     -1.114629      0.388230
  H       0.035008     -1.473102      1.421925
  H       0.542304     -1.947697     -0.169951
  C       1.103799      0.030494      0.337596
  C       2.497544     -0.382750      0.461657
  C      -2.939548      1.075219     -0.654313
  H      -3.134350      2.046966     -0.196701
  H      -2.994408      1.202292     -1.736857
  H      -3.764154      0.421081     -0.382928
  C      -1.764189     -3.250170     -0.240751
  H      -2.628135     -3.911567     -0.192663
  H      -1.115871     -3.629700     -1.035619
  H      -1.209467     -3.376220      0.689314
  C       3.657152      0.559698      0.256052
  H       3.506389      1.249979     -0.569631
  H       3.838048      1.145040      1.158854
  H       4.540033     -0.046037      0.066572
  C       1.428075      2.581959      0.311575
  H       2.232626      2.543483      1.036267
  H       1.853156      2.827622     -0.662359
  H       0.772795      3.403962      0.596939








