%nprocshared=16
%mem=16GB
%chk=DDL-LR-1.chk
#p CAM-B3LYP TZVP em=gd3bj td(nstates=6,root=1) scrf=(Solvent=Water)

Title Card Required

0 1
  O       2.766599     -1.550992      0.665639
  O      -3.387385     -1.658741     -0.712197
  N      -0.654178      1.525183     -0.094329
  H      -0.965630      2.478440     -0.182473
  C      -1.236912     -0.776980     -0.174805
  C       0.668480      1.317689      0.138944
  C      -1.607223      0.534477     -0.296970
  C      -2.145188     -1.833778     -0.375696
  C       0.180041     -1.133566      0.214196
  H       0.185317     -1.635938      1.186998
  H       0.583039     -1.868097     -0.485539
  C       1.133601      0.041260      0.262403
  C       2.511494     -0.357793      0.481362
  C      -2.954537      1.068516     -0.626412
  H      -3.337738      1.708069      0.174446
  H      -2.935489      1.662358     -1.544638
  H      -3.684434      0.272304     -0.775326
  C      -1.833914     -3.296885     -0.214604
  H      -2.509524     -3.769833      0.501758
  H      -1.945584     -3.824040     -1.165480
  H      -0.815060     -3.433568      0.135954
  C       3.672851      0.608580      0.477694
  H       3.652059      1.289674     -0.369494
  H       3.684890      1.207160      1.389248
  H       4.587799      0.022296      0.443185
  C       1.450273      2.595909      0.223067
  H       2.117078      2.612238      1.078673
  H       2.046566      2.753478     -0.675211
  H       0.772707      3.442580      0.319608








