%nprocshared=16
%mem=16GB
%chk=DDL-LR-8.chk
#p CAM-B3LYP TZVP em=gd3bj td(nstates=6,root=1) scrf=(Solvent=Water)

Title Card Required

0 1
  O       2.757988     -1.556846      0.697942
  O      -3.318432     -1.658458     -0.919099
  N      -0.679008      1.522195      0.015791
  H      -0.986691      2.477782     -0.059774
  C      -1.240545     -0.764858     -0.163619
  C       0.656772      1.309271      0.210153
  C      -1.609855      0.538750     -0.261129
  C      -2.152406     -1.824880     -0.461280
  C       0.142357     -1.120184      0.325722
  H       0.091423     -1.527928      1.342268
  H       0.559703     -1.919262     -0.286436
  C       1.115198      0.035804      0.310449
  C       2.502600     -0.374418      0.469468
  C      -2.942056      1.071888     -0.644132
  H      -3.214333      1.943510     -0.043202
  H      -2.966862      1.376836     -1.692792
  H      -3.752151      0.356231     -0.520849
  C      -1.793861     -3.260932     -0.229849
  H      -2.638627     -3.875619      0.084155
  H      -1.403977     -3.715366     -1.145791
  H      -1.022193     -3.401523      0.525730
  C       3.664840      0.577920      0.336114
  H       3.560651      1.264677     -0.499761
  H       3.784878      1.168252      1.245542
  H       4.561771     -0.021814      0.202152
  C       1.435664      2.587414      0.279899
  H       2.192886      2.568609      1.055322
  H       1.924335      2.801646     -0.670939
  H       0.769929      3.421304      0.497944








