%nprocshared=16
%mem=16GB
%chk=DDL-LR-14.chk
#p CAM-B3LYP TZVP em=gd3bj td(nstates=6,root=1) scrf=(Solvent=Water)

Title Card Required

0 1
  O       2.749979     -1.558588      0.723699
  O      -3.244534     -1.642441     -1.082119
  N      -0.703553      1.515800      0.109569
  H      -1.010013      2.472961      0.047375
  C      -1.245679     -0.758895     -0.153988
  C       0.645308      1.300378      0.270669
  C      -1.615710      0.541060     -0.231587
  C      -2.152033     -1.828898     -0.535311
  C       0.105987     -1.111751      0.421047
  H       0.004460     -1.445129      1.461992
  H       0.532768     -1.961060     -0.108387
  C       1.097655      0.027474      0.352242
  C       2.494822     -0.386663      0.457875
  C      -2.938772      1.078080     -0.661136
  H      -3.090105      2.089157     -0.281005
  H      -3.009641      1.113732     -1.749021
  H      -3.763939      0.459725     -0.319289
  C      -1.746545     -3.247606     -0.246257
  H      -2.598755     -3.919135     -0.327135
  H      -0.990521     -3.582959     -0.960812
  H      -1.309271     -3.365095      0.745734
  C       3.652220      0.549983      0.214947
  H       3.477522      1.242081     -0.604457
  H       3.864441      1.132729      1.112726
  H       4.526694     -0.058477     -0.003015
  C       1.424180      2.579019      0.328225
  H       2.251997      2.530450      1.025222
  H       1.815846      2.840622     -0.655711
  H       0.775194      3.393445      0.647910








