%nprocshared=32
%mem=16GB
%oldchk=DDL-S1min-S1-cLR.chk
%chk=DDL-S1min-S1-cLR-1.chk
#p CAM-B3LYP/TZVP em=gd3bj SCRF=(Solvent=TetraHydroFuran,NonEquilibrium=Read) Geom=Check Guess=Read NoSymm

Title Card Required

0 1






