%nprocshared=32
%mem=16GB
%oldchk=DDL-S1-opt-freq.chk
%chk=DDL-S1-TD-Neq.chk
#p CAM-B3LYP/TZVP em=gd3bj TD=NStates=6 SCRF=(Solvent=TetraHydroFuran) Geom=Check Guess=Read NoSymm

Title Card Required

0 1






