%nprocshared=32
%mem=16GB
%oldchk=DDL-S1-opt-freq.chk
%chk=DDL-S1-intmode.chk
#p CAM-B3LYP/TZVP em=gd3bj opt freq=intmodes IOp(7/75=-1) td=(root=1,nstates=1) SCRF=Solvent=TetraHydroFuran Geom=Check Guess=Read

Title Card Required

0 1






