%nprocshared=32
%mem=16GB
%oldchk=DDL-S0-opt-freq.chk
%chk=DDL-S0-intmode.chk
#p CAM-B3LYP/TZVP em=gd3bj opt freq=intmodes IOp(7/75=-1) SCRF=Solvent=TetraHydroFuran Geom=Check Guess=Read

Title Card Required

0 1






