%nprocshared=32
%mem=16GB
%oldchk=DDL-S0-TD.chk
%chk=DDL-S2-opt-freq.chk
#p M062X/TZVP em=gd3 TD=(NStates=6,Root=2) SCRF=Solvent=Water Geom=Check Guess=Read Opt Freq NoSymm

Title Card Required

0 1






