%nprocshared=32
%mem=16GB
%oldchk=DDL-S0-opt-freq.chk
%chk=DDL-S0min-S1-cLR.chk
#p M062X/TZVP em=gd3 TD=(NStates=6,Root=1) SCRF=(Solvent=Water,CorrectedLR) Geom=Check Guess=Read

Title Card Required

0 1






