%nprocshared=32
%mem=16GB
%oldchk=DDL-S0-opt-freq.chk
%chk=DDL-S0-TD.chk
#p M062X/TZVP em=gd3 TD=NStates=6 SCRF=Solvent=Water Geom=Check Guess=Read

Title Card Required

0 1






