%nprocshared=32
%mem=32GB
%chk=DDL-S0-opt-freq.chk
#p opt freq cam-b3lyp scrf=(solvent=water) em=gd3 tzvp

Title Card Required

0 1
 O                  1.30033893    9.82447705    0.88900000
 O                 -4.90066107    9.75247705   -0.04900000
 N                 -2.11966107   12.93347705    0.23200000
 H                 -2.38066107   13.74947705    0.15400000
 C                 -2.70566107   10.63347705    0.18900000
 C                 -0.78166107   12.71247705    0.46700000
 C                 -3.07066107   11.94247705    0.11300000
 C                 -3.68666107    9.55547705    0.08800000
 C                 -1.25366107   10.25447705    0.39600000
 H                 -1.18866107    9.69447705    1.18500000
 H                 -0.96066107    9.72647705   -0.36300000
 C                 -0.31566107   11.43347705    0.55900000
 C                  1.06333893   11.04047705    0.80600000
 C                 -4.45566107   12.48247705   -0.09200000
 H                 -4.41166107   13.42947705   -0.24200000
 H                 -4.85666107   12.05547705   -0.85300000
 H                 -4.98666107   12.30647705    0.68900000
 C                 -3.18166107    8.13647705    0.15200000
 H                 -3.91066107    7.52947705    0.00300000
 H                 -2.51166107    8.00447705   -0.52200000
 H                 -2.80066107    7.97147705    1.01800000
 C                  2.22233893   11.99247705    0.96700000
 H                  2.28633893   12.55247705    0.19000000
 H                  2.08333893   12.53847705    1.74400000
 H                  3.03633893   11.49247705    1.06800000
 C                  0.01333893   13.98747705    0.59300000
 H                  0.44233893   14.01347705    1.45200000
 H                  0.67833893   14.01947705   -0.09800000
 H                 -0.57566107   14.74047705    0.50700000

