%nprocshared=16
%mem=16GB
%chk=DDL-LR-15.chk
#p CAM-B3LYP TZVP em=gd3bj td(nstates=6,root=1) scrf=(Solvent=TetraHydroFuran)

Title Card Required

0 1
  O       2.834769     -1.563886      0.161385
  O      -3.418074     -1.618637      0.094504
  N      -0.632321      1.509615     -0.381216
  H      -0.940976      2.466670     -0.435865
  C      -1.236512     -0.757182     -0.225422
  C       0.703177      1.296323     -0.113137
  C      -1.608964      0.543817     -0.297362
  C      -2.224821     -1.826886     -0.092604
  C       0.222077     -1.114544     -0.368954
  H       0.473340     -1.962353      0.265024
  H       0.434632     -1.459386     -1.389975
  C       1.151779      0.022178     -0.018677
  C       2.512064     -0.393041      0.330576
  C      -3.000627      1.086450     -0.292964
  H      -3.003224      2.136355     -0.584761
  H      -3.643933      0.525716     -0.963633
  H      -3.441850      1.001786      0.699085
  C      -1.731415     -3.248389     -0.190817
  H      -2.583883     -3.918704     -0.249238
  H      -1.087711     -3.394883     -1.057463
  H      -1.142250     -3.505898      0.690741
  C       3.528726      0.544907      0.935674
  H       4.044357      1.101933      0.151503
  H       3.091794      1.258574      1.629308
  H       4.268339     -0.060731      1.453982
  C       1.468319      2.575425      0.034916
  H       1.502689      2.892012      1.078205
  H       2.483846      2.496586     -0.332097
  H       0.976655      3.366175     -0.530715








