%nprocshared=16
%mem=16GB
%chk=DDL-LR-12.chk
#p CAM-B3LYP TZVP em=gd3bj td(nstates=6,root=1) scrf=(Solvent=TetraHydroFuran)

Title Card Required

0 1
  O       2.836357     -1.566381      0.130446
  O      -3.421792     -1.626118      0.035495
  N      -0.640430      1.511966     -0.332319
  H      -0.949967      2.469820     -0.385617
  C      -1.239668     -0.758331     -0.219287
  C       0.697053      1.305756     -0.090736
  C      -1.616079      0.552338     -0.282568
  C      -2.221687     -1.831505     -0.115229
  C       0.215078     -1.106264     -0.323646
  H       0.456719     -1.944290      0.329808
  H       0.444809     -1.485486     -1.330139
  C       1.150681      0.023310     -0.003572
  C       2.513802     -0.395236      0.315459
  C      -3.005580      1.091293     -0.307278
  H      -3.008114      2.152041     -0.552675
  H      -3.620786      0.561461     -1.026322
  H      -3.487641      0.962260      0.658872
  C      -1.727244     -3.251228     -0.189604
  H      -2.570383     -3.922728     -0.309579
  H      -1.027384     -3.402830     -1.007673
  H      -1.203902     -3.520473      0.727154
  C       3.538268      0.540583      0.909717
  H       4.051458      1.093172      0.120607
  H       3.109912      1.258259      1.604516
  H       4.278866     -0.066402      1.425225
  C       1.467820      2.580997      0.032041
  H       1.556226      2.893582      1.072522
  H       2.465013      2.499853     -0.381636
  H       0.958596      3.380580     -0.503982








