%nprocshared=16
%mem=16GB
%chk=DDL-LR-1.chk
#p CAM-B3LYP TZVP em=gd3bj td(nstates=6,root=1) scrf=(Solvent=TetraHydroFuran)

Title Card Required

0 1
  O       2.840157     -1.574847      0.017213
  O      -3.430102     -1.653909     -0.180776
  N      -0.670481      1.518778     -0.152961
  H      -0.982798      2.480069     -0.201647
  C      -1.250212     -0.763812     -0.197036
  C       0.675016      1.341581     -0.008681
  C      -1.643876      0.584691     -0.228405
  C      -2.209603     -1.850015     -0.197822
  C       0.189724     -1.077691     -0.160822
  H       0.395095     -1.875606      0.563843
  H       0.480365     -1.578977     -1.104718
  C       1.146704      0.026227      0.051460
  C       2.518601     -0.403432      0.259783
  C      -3.033737      1.108055     -0.358579
  H      -3.028151      2.195914     -0.431924
  H      -3.525023      0.702609     -1.240708
  H      -3.646830      0.820441      0.492948
  C      -1.703276     -3.273564     -0.183677
  H      -2.501282     -3.926190     -0.527291
  H      -0.823489     -3.429265     -0.803787
  H      -1.442388     -3.568728      0.835027
  C       3.572536      0.524789      0.814524
  H       4.076737      1.061124      0.007644
  H       3.175876      1.256905      1.513154
  H       4.316988     -0.087046      1.319777
  C       1.470748      2.604810      0.024276
  H       1.751247      2.896000      1.038320
  H       2.384308      2.512972     -0.557335
  H       0.897148      3.428116     -0.401805








