%nprocshared=16
%mem=16GB
%chk=DDL-LR-11.chk
#p CAM-B3LYP TZVP em=gd3bj td(nstates=6,root=1) scrf=(Solvent=TetraHydroFuran)

Title Card Required

0 1
  O       2.836832     -1.567195      0.120150
  O      -3.422894     -1.628617      0.015858
  N      -0.643136      1.512703     -0.316036
  H      -0.952955      2.470835     -0.368901
  C      -1.240696     -0.758744     -0.217253
  C       0.695026      1.308926     -0.083284
  C      -1.618491      0.555200     -0.277640
  C      -2.220632     -1.833080     -0.122747
  C       0.212755     -1.103549     -0.308658
  H       0.451170     -1.938208      0.351288
  H       0.448154     -1.494127     -1.310067
  C       1.150319      0.023657      0.001442
  C       2.514342     -0.395970      0.310416
  C      -3.007478      1.092885     -0.311965
  H      -3.009792      2.156926     -0.541857
  H      -3.612755      0.573660     -1.046856
  H      -3.502717      0.949116      0.644992
  C      -1.725627     -3.252464     -0.189204
  H      -2.565384     -3.923776     -0.329680
  H      -1.007624     -3.405413     -0.990465
  H      -1.224877     -3.525203      0.738705
  C       3.541426      0.539147      0.901073
  H       4.053801      1.090261      0.110327
  H       3.115932      1.258150      1.596249
  H       4.282359     -0.068284      1.415649
  C       1.467761      2.582942      0.031170
  H       1.574061      2.894015      1.070281
  H       2.458425      2.500964     -0.398020
  H       0.952695      3.385241     -0.494964








