%nprocshared=16
%mem=16GB
%chk=DDL-LR-9.chk
#p CAM-B3LYP TZVP em=gd3bj td(nstates=6,root=1) scrf=(Solvent=TetraHydroFuran)

Title Card Required

0 1
  O       2.837701     -1.568794      0.099575
  O      -3.424887     -1.633626     -0.023394
  N      -0.648557      1.514105     -0.283480
  H      -0.958923      2.472813     -0.335497
  C      -1.242714     -0.759619     -0.213198
  C       0.690990      1.315312     -0.068392
  C      -1.623381      0.560964     -0.267788
  C      -2.218501     -1.836292     -0.137758
  C       0.208122     -1.098186     -0.278830
  H       0.440051     -1.925951      0.394092
  H       0.454774     -1.511322     -1.269710
  C       1.149597      0.024304      0.011447
  C       2.515362     -0.397443      0.300322
  C      -3.011666      1.096031     -0.321259
  H      -3.013226      2.166160     -0.520073
  H      -3.596240      0.598471     -1.087329
  H      -3.532545      0.922923      0.616500
  C      -1.722039     -3.255398     -0.188370
  H      -2.554606     -3.925421     -0.369789
  H      -0.968739     -3.410473     -0.955159
  H      -1.267388     -3.534461      0.760825
  C       3.547711      0.536280      0.883789
  H       4.058453      1.084444      0.089786
  H       3.127949      1.257926      1.579702
  H       4.289324     -0.072038      1.396503
  C       1.467824      2.586963      0.029545
  H       1.609693      2.894746      1.065273
  H       2.444785      2.503228     -0.430565
  H       0.941078      3.394356     -0.476767








