%nprocshared=16
%mem=16GB
%oldchk=DDL-S2-cLR-1.chk
%chk=DDL-S2-cLR-gs-1.chk
#p CAM-B3LYP TZVP em=gd3bj scrf=(Solvent=TetraHydroFuran,NonEquilibrium=Read) Geom=Check Guess=Read

Title Card Required

0 1






