%nprocshared=16
%mem=16GB
%chk=DDL-LR-10.chk
#p CAM-B3LYP TZVP em=gd3bj td(nstates=6,root=1) scrf=(Solvent=TetraHydroFuran)

Title Card Required

0 1
  O       2.837280     -1.567999      0.109860
  O      -3.423925     -1.631119     -0.003771
  N      -0.645845      1.513416     -0.299757
  H      -0.955941      2.471832     -0.352195
  C      -1.241712     -0.759173     -0.215224
  C       0.693005      1.312111     -0.075837
  C      -1.620925      0.558075     -0.272713
  C      -2.219571     -1.834676     -0.130256
  C       0.210436     -1.100856     -0.293720
  H       0.445614     -1.932095      0.372715
  H       0.451476     -1.502740     -1.289925
  C       1.149958      0.023988      0.006447
  C       2.514862     -0.396705      0.305370
  C      -3.009506      1.094465     -0.316623
  H      -3.011495      2.161633     -0.530987
  H      -3.604571      0.585998     -1.067194
  H      -3.517688      0.936001      0.630868
  C      -1.723892     -3.253853     -0.188795
  H      -2.560126     -3.924674     -0.349755
  H      -0.988069     -3.407961     -0.972958
  H      -1.246045     -3.529866      0.749934
  C       3.544574      0.537713      0.892430
  H       4.056132      1.087352      0.100054
  H       3.121944      1.258039      1.587977
  H       4.285845     -0.070162      1.406075
  C       1.467762      2.584930      0.030338
  H       1.591885      2.894403      1.067865
  H       2.451681      2.502089     -0.414331
  H       0.946855      3.389833     -0.485892








