%nprocshared=16
%mem=16GB
%chk=DDL-LR-3.chk
#p CAM-B3LYP TZVP em=gd3bj td(nstates=6,root=1) scrf=(Solvent=TetraHydroFuran)

Title Card Required

0 1
  O       2.839691     -1.573384      0.037849
  O      -3.429203     -1.648793     -0.141290
  N      -0.664952      1.517747     -0.185688
  H      -0.976814      2.478348     -0.235218
  C      -1.248428     -0.762655     -0.201081
  C       0.678995      1.334892     -0.023667
  C      -1.638610      0.578642     -0.238255
  C      -2.211890     -1.846455     -0.182765
  C       0.194308     -1.082668     -0.190208
  H       0.406434     -1.888397      0.521548
  H       0.474092     -1.562221     -1.146582
  C       1.147434      0.025849      0.041424
  C       2.517919     -0.401916      0.269951
  C      -3.027428      1.105125     -0.349093
  H      -3.024235      2.189528     -0.454009
  H      -3.543492      0.675929     -1.203654
  H      -3.619066      0.845626      0.525216
  C      -1.708565     -3.268057     -0.185138
  H      -2.516063     -3.926818     -0.488508
  H      -0.858139     -3.424790     -0.842902
  H      -1.398197     -3.560573      0.818638
  C       3.566365      0.527674      0.831886
  H       4.072200      1.066980      0.028207
  H       3.163894      1.257182      1.529871
  H       4.310090     -0.083283      1.339010
  C       1.469592      2.600083      0.025453
  H       1.716045      2.895922      1.046065
  H       2.400273      2.510419     -0.526187
  H       0.907750      3.420064     -0.420871








