%nprocshared=16
%mem=16GB
%chk=DDL-LR-14.chk
#p CAM-B3LYP TZVP em=gd3bj td(nstates=6,root=1) scrf=(Solvent=TetraHydroFuran)

Title Card Required

0 1
  O       2.835325     -1.564727      0.151062
  O      -3.419382     -1.621129      0.074814
  N      -0.635023      1.510422     -0.364906
  H      -0.943978      2.467738     -0.419095
  C      -1.237575     -0.757550     -0.223371
  C       0.701128      1.299455     -0.105661
  C      -1.611317      0.546648     -0.292429
  C      -2.223780     -1.828409     -0.100160
  C       0.219739     -1.111762     -0.353790
  H       0.467803     -1.956362      0.286680
  H       0.438047     -1.468115     -1.370088
  C       1.151411      0.022570     -0.013629
  C       2.512662     -0.393772      0.325538
  C      -3.002158      1.088073     -0.297785
  H      -3.004832      2.141752     -0.574133
  H      -3.636378      0.537489     -0.984702
  H      -3.457201      0.988603      0.685913
  C      -1.730135     -3.249197     -0.190404
  H      -2.579625     -3.920189     -0.269346
  H      -1.067446     -3.397565     -1.041172
  H      -1.162580     -3.510819      0.703151
  C       3.531918      0.543463      0.927016
  H       4.046737      1.099008      0.141193
  H       3.097844      1.258470      1.621044
  H       4.271857     -0.062626      1.444390
  C       1.468101      2.577239      0.033913
  H       1.520537      2.892581      1.076482
  H       2.477723      2.497665     -0.348671
  H       0.970578      3.371046     -0.521857








