%nprocshared=16
%mem=16GB
%chk=DDL-LR-6.chk
#p CAM-B3LYP TZVP em=gd3bj td(nstates=6,root=1) scrf=(Solvent=TetraHydroFuran)

Title Card Required

0 1
  O       2.838809     -1.571128      0.068736
  O      -3.427353     -1.641177     -0.082262
  N      -0.656723      1.516031     -0.234645
  H      -0.967862      2.475653     -0.285417
  C      -1.245636     -0.761057     -0.207138
  C       0.684977      1.325013     -0.046062
  C      -1.630886      0.569721     -0.253025
  C      -2.215241     -1.841272     -0.160243
  C       0.201203     -1.090320     -0.234406
  H       0.423308     -1.907329      0.457948
  H       0.464529     -1.536889     -1.208585
  C       1.148518      0.025151      0.026423
  C       2.516735     -0.399667      0.285161
  C      -3.018943      1.100641     -0.335118
  H      -3.018592      2.178649     -0.487134
  H      -3.570426      0.636659     -1.146450
  H      -3.576381      0.883996      0.571943
  C      -1.715791     -3.260995     -0.186936
  H      -2.536482     -3.926766     -0.429515
  H      -0.912240     -3.417795     -0.900131
  H      -1.332299     -3.547828      0.791364
  C       3.557068      0.531983      0.857866
  H       4.065357      1.075725      0.059011
  H       3.145927      1.257569      1.554840
  H       4.299723     -0.077657      1.367788
  C       1.468398      2.593322      0.027373
  H       1.662978      2.895519      1.056446
  H       2.423192      2.506740     -0.478761
  H       0.924131      3.407506     -0.449071








