%nprocshared=16
%mem=16GB
%chk=DDL-LR-5.chk
#p CAM-B3LYP TZVP em=gd3bj td(nstates=6,root=1) scrf=(Solvent=TetraHydroFuran)

Title Card Required

0 1
  O       2.839128     -1.571888      0.058447
  O      -3.428037     -1.643708     -0.101917
  N      -0.659458      1.516626     -0.218341
  H      -0.970844      2.476567     -0.268700
  C      -1.246582     -0.761572     -0.205119
  C       0.682980      1.328286     -0.038606
  C      -1.633437      0.572675     -0.248102
  C      -2.214134     -1.842978     -0.167745
  C       0.198902     -1.087745     -0.219652
  H       0.417699     -1.901052      0.479174
  H       0.467738     -1.545359     -1.188017
  C       1.148158      0.025401      0.031418
  C       2.517151     -0.400414      0.280096
  C      -3.021638      1.102149     -0.339753
  H      -3.020442      2.182453     -0.476102
  H      -3.561562      0.649639     -1.165736
  H      -3.590745      0.871134      0.556600
  C      -1.713485     -3.263187     -0.186384
  H      -2.529922     -3.926923     -0.449277
  H      -0.893927     -3.420164     -0.881274
  H      -1.354185     -3.552146      0.800821
  C       3.560174      0.530548      0.849213
  H       4.067644      1.072814      0.048747
  H       3.151916      1.257443      1.546529
  H       4.303182     -0.079530      1.358203
  C       1.468726      2.595532      0.026709
  H       1.680698      2.895693      1.053155
  H       2.415694      2.507947     -0.494661
  H       0.918606      3.411758     -0.439726








