%nprocshared=16
%mem=16GB
%chk=DDL-LR-0.chk
#p CAM-B3LYP TZVP em=gd3bj td(nstates=6,root=1) scrf=(Solvent=TetraHydroFuran)

Title Card Required

0 1
  O       2.840355     -1.575566      0.006876
  O      -3.430456     -1.656480     -0.200573
  N      -0.673261      1.519260     -0.136562
  H      -0.985797      2.480907     -0.184817
  C      -1.251081     -0.764420     -0.195008
  C       0.673027      1.344959     -0.001164
  C      -1.646543      0.587748     -0.223477
  C      -2.208444     -1.851824     -0.205370
  C       0.187435     -1.075242     -0.146137
  H       0.389393     -1.869159      0.584973
  H       0.483471     -1.587317     -1.083615
  C       1.146336      0.026389      0.056495
  C       2.518909     -0.404196      0.254690
  C      -3.037078      1.109507     -0.363395
  H      -3.030155      2.198859     -0.420899
  H      -3.515660      0.716076     -1.258921
  H      -3.660503      0.807978      0.476504
  C      -1.700512     -3.276547     -0.182859
  H      -2.493575     -3.925694     -0.546499
  H      -0.806587     -3.431445     -0.784002
  H      -1.464503     -3.572706      0.842713
  C       3.575614      0.523342      0.805827
  H       4.079000      1.058186     -0.002651
  H       3.181872      1.256761      1.504771
  H       4.320435     -0.088933      1.310142
  C       1.471434      2.607239      0.023709
  H       1.768788      2.895985      1.034213
  H       2.376132      2.514280     -0.572765
  H       0.891940      3.432050     -0.392194








