%nprocshared=16
%mem=16GB
%chk=DDL-LR-4.chk
#p CAM-B3LYP TZVP em=gd3bj td(nstates=6,root=1) scrf=(Solvent=TetraHydroFuran)

Title Card Required

0 1
  O       2.839421     -1.572640      0.048152
  O      -3.428654     -1.646247     -0.121592
  N      -0.662201      1.517198     -0.202023
  H      -0.973828      2.477465     -0.251968
  C      -1.247513     -0.762104     -0.203101
  C       0.680986      1.331579     -0.031141
  C      -1.636011      0.575649     -0.243178
  C      -2.213017     -1.844705     -0.175252
  C       0.196604     -1.085194     -0.204921
  H       0.412075     -1.894741      0.500373
  H       0.470926     -1.553803     -1.167351
  C       1.147796      0.025634      0.036418
  C       2.517546     -0.401163      0.275026
  C      -3.024467      1.103643     -0.344409
  H      -3.022323      2.186079     -0.465058
  H      -3.552581      0.662731     -1.184804
  H      -3.604974      0.858342      0.541022
  C      -1.711074     -3.265541     -0.185786
  H      -2.523113     -3.926939     -0.468945
  H      -0.875891     -3.422496     -0.862191
  H      -1.376159     -3.556394      0.809912
  C       3.563273      0.529112      0.840553
  H       4.069925      1.069899      0.038479
  H       3.157905      1.257314      1.538206
  H       4.306638     -0.081406      1.348611
  C       1.469123      2.597785      0.026070
  H       1.698388      2.895827      1.049694
  H       2.408054      2.509173     -0.510470
  H       0.913146      3.415943     -0.430325








