%nprocshared=16
%mem=16GB
%chk=DDL-LR-2.chk
#p CAM-B3LYP TZVP em=gd3bj td(nstates=6,root=1) scrf=(Solvent=TetraHydroFuran)

Title Card Required

0 1
  O       2.839936     -1.574120      0.027537
  O      -3.429685     -1.651347     -0.161017
  N      -0.667712      1.518274     -0.169335
  H      -0.979804      2.479216     -0.218446
  C      -1.249328     -0.763224     -0.199060
  C       0.677005      1.338226     -0.016181
  C      -1.641231      0.581656     -0.233331
  C      -2.210752     -1.848225     -0.190288
  C       0.192015     -1.080167     -0.175510
  H       0.400774     -1.882018      0.542703
  H       0.477238     -1.570612     -1.125705
  C       1.147070      0.026047      0.046437
  C       2.518271     -0.402673      0.264870
  C      -3.030519      1.106595     -0.353814
  H      -3.026178      2.192805     -0.442962
  H      -3.534303      0.689224     -1.222287
  H      -3.633018      0.832991      0.509189
  C      -1.705963     -3.270732     -0.184436
  H      -2.508783     -3.926567     -0.507959
  H      -0.840672     -3.427047     -0.823427
  H      -1.420280     -3.564684      0.827007
  C       3.569453      0.526233      0.823210
  H       4.074471      1.064055      0.017929
  H       3.169884      1.257045      1.521521
  H       4.313540     -0.085163      1.329400
  C       1.470134      2.602425      0.024857
  H       1.733665      2.895980      1.042272
  H       2.392356      2.511685     -0.541809
  H       0.902417      3.424121     -0.411365








