%nprocshared=16
%mem=16GB
%chk=DDL-LR-16.chk
#p CAM-B3LYP TZVP em=gd3bj td(nstates=6,root=1) scrf=(Solvent=TetraHydroFuran)

Title Card Required

0 1
  O       2.834186     -1.563035      0.171720
  O      -3.416699     -1.616145      0.114221
  N      -0.629619      1.508785     -0.397542
  H      -0.937968      2.465585     -0.452661
  C      -1.235438     -0.756829     -0.227480
  C       0.705234      1.293201     -0.120626
  C      -1.606629      0.540993     -0.302298
  C      -2.225859     -1.825376     -0.085030
  C       0.224420     -1.117347     -0.384186
  H       0.478874     -1.968317      0.243302
  H       0.431192     -1.450627     -1.409812
  C       1.152149      0.021771     -0.023740
  C       2.511446     -0.392312      0.335612
  C      -2.999209      1.084820     -0.288085
  H      -3.001636      2.130796     -0.595318
  H      -3.651328      0.514082     -0.942405
  H      -3.426420      1.014968      0.712035
  C      -1.732591     -3.247712     -0.191248
  H      -2.587914     -3.917080     -0.229149
  H      -1.108105     -3.392168     -1.073454
  H      -1.122147     -3.500918      0.678086
  C       3.525521      0.546356      0.944339
  H       4.041963      1.104865      0.161825
  H       3.085731      1.258676      1.637572
  H       4.264812     -0.058829      1.463584
  C       1.468584      2.573653      0.035965
  H       1.484843      2.891396      1.079762
  H       2.489817      2.495514     -0.315468
  H       0.982789      3.361234     -0.539521








