%nprocshared=16
%mem=16GB
%chk=DDL-LR-8.chk
#p CAM-B3LYP TZVP em=gd3bj td(nstates=6,root=1) scrf=(Solvent=TetraHydroFuran)

Title Card Required

0 1
  O       2.838096     -1.569581      0.089297
  O      -3.425778     -1.636137     -0.043006
  N      -0.651273      1.514771     -0.267211
  H      -0.961903      2.473776     -0.318810
  C      -1.243702     -0.760081     -0.211176
  C       0.688981      1.318527     -0.060953
  C      -1.625859      0.563866     -0.262867
  C      -2.217424     -1.837929     -0.145253
  C       0.205812     -1.095541     -0.263989
  H       0.434483     -1.919777      0.415412
  H       0.458048     -1.519871     -1.249425
  C       1.149238      0.024603      0.016439
  C       2.515840     -0.398181      0.295273
  C      -3.013957      1.097582     -0.325880
  H      -3.014985      2.170504     -0.509125
  H      -3.587772      0.611071     -1.107245
  H      -3.547278      0.909896      0.601895
  C      -1.720071     -3.257102     -0.187923
  H      -2.548827     -3.926017     -0.389760
  H      -0.949656     -3.412949     -0.937087
  H      -1.288883     -3.538985      0.771362
  C       3.550838      0.534848      0.875152
  H       4.060762      1.081539      0.079529
  H       3.133945      1.257810      1.571424
  H       4.292795     -0.073911      1.386936
  C       1.467949      2.589038      0.028789
  H       1.627473      2.895046      1.062506
  H       2.437739      2.504382     -0.446711
  H       0.935366      3.398806     -0.467591








