%nprocshared=16
%mem=16GB
%chk=DDL-LR-7.chk
#p CAM-B3LYP TZVP em=gd3bj td(nstates=6,root=1) scrf=(Solvent=TetraHydroFuran)

Title Card Required

0 1
  O       2.838465     -1.570358      0.079020
  O      -3.426600     -1.638653     -0.062623
  N      -0.653994      1.515412     -0.250937
  H      -0.964881      2.474722     -0.302122
  C      -1.244676     -0.760561     -0.209157
  C       0.686978      1.321760     -0.053511
  C      -1.628360      0.566784     -0.257947
  C      -2.216337     -1.839589     -0.152746
  C       0.203507     -1.092919     -0.249185
  H       0.428903     -1.913571      0.436692
  H       0.461299     -1.528391     -1.229056
  C       1.148878      0.024885      0.021429
  C       2.516298     -0.398923      0.290220
  C      -3.016382      1.099118     -0.330496
  H      -3.016773      2.174666     -0.498146
  H      -3.579167      0.623799     -1.126949
  H      -3.561889      0.896921      0.587044
  C      -1.717988     -3.258967     -0.187447
  H      -2.542786     -3.926465     -0.409669
  H      -0.930823     -3.415390     -0.918743
  H      -1.310522     -3.543440      0.781541
  C       3.553956      0.533416      0.866513
  H       4.063063      1.078634      0.069273
  H       3.139936      1.257691      1.563139
  H       4.296261     -0.075783      1.377367
  C       1.468140      2.591157      0.028066
  H       1.645233      2.895303      1.059564
  H       2.430542      2.505552     -0.462774
  H       0.929718      3.403189     -0.458361








