%nprocshared=16
%mem=16GB
%chk=DDL-LR-13.chk
#p CAM-B3LYP TZVP em=gd3bj td(nstates=6,root=1) scrf=(Solvent=TetraHydroFuran)

Title Card Required

0 1
  O       2.835855     -1.565559      0.140749
  O      -3.420622     -1.623623      0.055146
  N      -0.637726      1.511206     -0.348608
  H      -0.946975      2.468788     -0.402347
  C      -1.238627     -0.757933     -0.221327
  C       0.699087      1.302599     -0.098194
  C      -1.613688      0.549488     -0.287498
  C      -2.222736     -1.829948     -0.107701
  C       0.217406     -1.109002     -0.338689
  H       0.462263     -1.950341      0.308273
  H       0.441440     -1.476815     -1.350144
  C       1.151045      0.022948     -0.008595
  C       2.513242     -0.394503      0.320500
  C      -3.003807      1.089688     -0.302554
  H      -3.006462      2.146982     -0.563436
  H      -3.628662      0.549404     -1.005601
  H      -3.472467      0.975425      0.672511
  C      -1.728746     -3.250141     -0.190002
  H      -2.575128     -3.921532     -0.289464
  H      -1.047331     -3.400214     -1.024576
  H      -1.183133     -3.515677      0.715296
  C       3.535099      0.542021      0.918365
  H       4.049104      1.096088      0.130895
  H       3.103883      1.258365      1.612781
  H       4.275366     -0.064516      1.434805
  C       1.467934      2.579096      0.032955
  H       1.538383      2.893104      1.074588
  H       2.471446      2.498754     -0.365185
  H       0.964558      3.375848     -0.512946








