%nprocshared=32
%mem=16GB
%chk=DDL-DDL-S0-opt-freq.chk
#p CAM-B3LYP/TZVP em=gd3bj Opt Freq SCRF=Solvent=Water

Title Card Required

0 1
 O                 -1.71548115    4.19456077    0.00000000
 O                 -2.49648115    1.09256077    3.39400000
 O                 -7.91648115    4.26656077   -0.93700000
 O                 -8.69748115    1.02056077    2.45600000
 N                 -5.13548115    1.08556077   -0.65600000
 N                 -5.91648115    4.20156077    2.73700000
 H                 -5.39748115    0.27056077   -0.73400000
 H                 -6.17748115    5.01756077    2.65900000
 C                 -5.72148115    3.38556077   -0.69900000
 C                 -6.50248115    1.90156077    2.69400000
 C                 -3.79748115    1.30756077   -0.42100000
 C                 -4.57848115    3.98056077    2.97200000
 C                 -6.08748115    2.07656077   -0.77600000
 C                 -6.86748115    3.21056077    2.61800000
 C                 -6.70348115    4.46356077   -0.80000000
 C                 -7.48348115    0.82356077    2.59300000
 C                 -4.27048115    3.76556077   -0.49300000
 C                 -5.05048115    1.52256077    2.90100000
 H                 -4.20548115    4.32456077    0.29700000
 H                 -4.98548115    0.96256077    3.69000000
 H                 -3.97648115    4.29356077   -1.25200000
 H                 -4.75748115    0.99456077    2.14200000
 C                 -3.33148115    2.58656077   -0.33000000
 C                 -4.11248115    2.70156077    3.06400000
 C                 -1.95348115    2.97956077   -0.08300000
 C                 -2.73348115    2.30856077    3.31100000
 C                 -7.47248115    1.53756077   -0.98100000
 C                 -8.25248115    3.75056077    2.41300000
 H                 -7.42748115    0.59056077   -1.13100000
 H                 -8.20848115    4.69756077    2.26300000
 H                 -7.87248115    1.96356077   -1.74200000
 H                 -8.65348115    3.32356077    1.65200000
 H                 -8.00248115    1.71256077   -0.20000000
 H                 -8.78348115    3.57456077    3.19400000
 C                 -6.19748115    5.88356077   -0.73600000
 C                 -6.97848115   -0.59543923    2.65700000
 H                 -6.92648115    6.48956077   -0.88600000
 H                 -7.70748115   -1.20243923    2.50800000
 H                 -5.52748115    6.01556077   -1.41100000
 H                 -6.30848115   -0.72743923    1.98300000
 H                 -5.81648115    6.04856077    0.12900000
 H                 -6.59748115   -0.76043923    3.52300000
 C                 -0.79348115    2.02656077    0.07800000
 C                 -1.57448115    3.26056077    3.47200000
 H                 -0.72948115    1.46656077   -0.69900000
 H                 -1.51048115    3.82056077    2.69500000
 H                 -0.93248115    1.48156077    0.85500000
 H                 -1.71348115    3.80656077    4.24900000
 H                  0.01951885    2.52756077    0.17900000
 H                 -0.76048115    2.76056077    3.57300000
 C                 -3.00348115    0.03156077   -0.29500000
 C                 -3.78348115    5.25556077    3.09800000
 H                 -2.57448115    0.00556077    0.56300000
 H                 -3.35448115    5.28156077    3.95700000
 H                 -2.33748115   -0.00043923   -0.98700000
 H                 -3.11848115    5.28756077    2.40700000
 H                 -3.59148115   -0.72143923   -0.38200000
 H                 -4.37248115    6.00856077    3.01200000

 1 25 2.0
 2 26 2.0
 3 15 2.0
 4 16 2.0
 5 7 1.0 11 1.5 13 1.5
 6 8 1.0 12 1.5 14 1.5
 7
 8
 9 13 2.0 15 1.0 17 1.0
 10 14 2.0 16 1.0 18 1.0
 11 23 2.0 51 1.0
 12 24 2.0 52 1.0
 13 27 1.0
 14 28 1.0
 15 35 1.0
 16 36 1.0
 17 19 1.0 21 1.0 23 1.0
 18 20 1.0 22 1.0 24 1.0
 19
 20
 21
 22
 23 25 1.0
 24 26 1.0
 25 43 1.0
 26 44 1.0
 27 29 1.0 31 1.0 33 1.0
 28 30 1.0 32 1.0 34 1.0
 29
 30
 31
 32
 33
 34
 35 37 1.0 39 1.0 41 1.0
 36 38 1.0 40 1.0 42 1.0
 37
 38
 39
 40
 41
 42
 43 45 1.0 47 1.0 49 1.0
 44 46 1.0 48 1.0 50 1.0
 45
 46
 47
 48
 49
 50
 51 53 1.0 55 1.0 57 1.0
 52 54 1.0 56 1.0 58 1.0
 53
 54
 55
 56
 57
 58








