%nprocshared=32
%mem=16GB
%oldchk=DDL-S2min-S2-cLR.chk
%chk=DDL-S2min-S2-cLR-1.chk
#p wB97XD/TZVP  SCRF=(Solvent=Water,NonEquilibrium=Read) Geom=Check Guess=Read NoSymm

Title Card Required

0 1






