%nprocshared=32
%mem=16GB
%oldchk=DDL-S1-opt-freq.chk
%chk=DDL-S1-TD-Neq.chk
#p wB97XD/TZVP  TD=NStates=6 SCRF=(Solvent=Water) Geom=Check Guess=Read NoSymm

Title Card Required

0 1






