%nprocshared=32
%mem=16GB
%oldchk=DDL-S0-TD.chk
%chk=DDL-S1-opt-freq.chk
#p wB97XD/TZVP  TD=(NStates=6,Root=1) SCRF=Solvent=Water Geom=Check Guess=Read Opt Freq NoSymm

Title Card Required

0 1






