%nprocshared=16
%mem=16GB
%chk=DDL-LR-6.chk
#p CAM-B3LYP TZVP em=gd3bj td(nstates=6,root=1) scrf=(Solvent=TetraHydroFuran)

Title Card Required

0 1
  O       2.801652     -1.576247      0.374240
  O      -3.444919     -1.650135     -0.345325
  N      -0.649824      1.523349     -0.165338
  H      -0.967504      2.477091     -0.206537
  C      -1.242198     -0.764675     -0.190616
  C       0.679030      1.310344      0.053458
  C      -1.617567      0.539650     -0.254032
  C      -2.187546     -1.823990     -0.264223
  C       0.213322     -1.130384     -0.058809
  H       0.346963     -1.809359      0.785820
  H       0.540087     -1.684075     -0.944209
  C       1.145473      0.040392      0.125838
  C       2.517422     -0.379101      0.362302
  C      -2.994568      1.075846     -0.403102
  H      -3.011839      1.928055     -1.087779
  H      -3.701328      0.348882     -0.797621
  H      -3.396560      1.405749      0.558009
  C      -1.802730     -3.272430     -0.260862
  H      -2.346136     -3.887441     -0.980705
  H      -0.747596     -3.439197     -0.470265
  H      -1.981172     -3.717793      0.722885
  C       3.640052      0.594542      0.605705
  H       3.814164      1.254356     -0.242419
  H       3.477075      1.218102      1.483071
  H       4.533252     -0.005019      0.764951
  C       1.446157      2.587220      0.183218
  H       1.897091      2.700666      1.166588
  H       2.235181      2.678103     -0.559499
  H       0.804564      3.457499      0.045253








