%nprocshared=16
%mem=16GB
%chk=DDL-LR-10.chk
#p CAM-B3LYP TZVP em=gd3bj td(nstates=6,root=1) scrf=(Solvent=TetraHydroFuran)

Title Card Required

0 1
  O       2.812196     -1.577469      0.289801
  O      -3.447231     -1.638882     -0.163557
  N      -0.641454      1.519284     -0.253884
  H      -0.955101      2.474361     -0.297176
  C      -1.241723     -0.759305     -0.204004
  C       0.688402      1.304486     -0.013089
  C      -1.614106      0.541001     -0.272210
  C      -2.208707     -1.822224     -0.195632
  C       0.219247     -1.125259     -0.185402
  H       0.402316     -1.878405      0.581023
  H       0.503341     -1.591889     -1.135191
  C       1.147307      0.035446      0.068621
  C       2.513569     -0.386828      0.347290
  C      -2.998553      1.077381     -0.357905
  H      -3.017807      2.023420     -0.903448
  H      -3.687904      0.406098     -0.863943
  H      -3.412968      1.251371      0.636857
  C      -1.781276     -3.258980     -0.236183
  H      -2.510353     -3.926355     -0.696101
  H      -0.847270     -3.419096     -0.775117
  H      -1.609131     -3.640533      0.775061
  C       3.601359      0.578249      0.737044
  H       3.913986      1.200585     -0.100899
  H       3.322936      1.238162      1.555697
  H       4.450352     -0.028198      1.043941
  C       1.451715      2.581870      0.127238
  H       1.734458      2.777010      1.160968
  H       2.353170      2.605363     -0.477300
  H       0.859230      3.439335     -0.192501








