%nprocshared=16
%mem=16GB
%chk=DDL-LR-4.chk
#p CAM-B3LYP TZVP em=gd3bj td(nstates=6,root=1) scrf=(Solvent=TetraHydroFuran)

Title Card Required

0 1
  O       2.798035     -1.572028      0.417829
  O      -3.437111     -1.653321     -0.438640
  N      -0.654499      1.524434     -0.120601
  H      -0.973501      2.477794     -0.161363
  C      -1.241474     -0.768716     -0.183694
  C       0.674573      1.312704      0.087494
  C      -1.618978      0.538403     -0.244897
  C      -2.174530     -1.826255     -0.297965
  C       0.209314     -1.133434      0.005091
  H       0.317558     -1.773060      0.884487
  H       0.554957     -1.732344     -0.841891
  C       1.144524      0.041400      0.154850
  C       2.520470     -0.373637      0.370227
  C      -2.991841      1.075036     -0.426390
  H      -3.006357      1.873184     -1.173932
  H      -3.703838      0.322532     -0.760528
  H      -3.386173      1.481203      0.509033
  C      -1.810302     -3.280677     -0.270984
  H      -2.239637     -3.858895     -1.091914
  H      -0.735758     -3.443892     -0.310817
  H      -2.154384     -3.749835      0.655524
  C       3.656826      0.601779      0.538556
  H       3.760292      1.279296     -0.306625
  H       3.554519      1.206571      1.438632
  H       4.563556      0.007354      0.621762
  C       1.444290      2.589980      0.212239
  H       1.975773      2.662621      1.157550
  H       2.168686      2.715323     -0.590069
  H       0.785009      3.456480      0.167035








