%nprocshared=16
%mem=16GB
%chk=DDL-LR-5.chk
#p CAM-B3LYP TZVP em=gd3bj td(nstates=6,root=1) scrf=(Solvent=TetraHydroFuran)

Title Card Required

0 1
  O       2.799722     -1.574442      0.395856
  O      -3.441582     -1.651989     -0.391661
  N      -0.652119      1.523979     -0.143079
  H      -0.970539      2.477498     -0.184051
  C      -1.241910     -0.766569     -0.187194
  C       0.676781      1.311570      0.070334
  C      -1.618300      0.539073     -0.249454
  C      -2.181227     -1.824987     -0.281082
  C       0.211423     -1.131848     -0.027056
  H       0.332502     -1.791295      0.835328
  H       0.547755     -1.708041     -0.893832
  C       1.145011      0.041026      0.140207
  C       2.518837     -0.376509      0.366234
  C      -2.993259      1.075469     -0.414582
  H      -3.009250      1.901245     -1.131229
  H      -3.702998      0.335582     -0.779312
  H      -3.391560      1.443602      0.534452
  C      -1.806712     -3.276347     -0.266132
  H      -2.294009     -3.873685     -1.039386
  H      -0.738483     -3.442173     -0.389909
  H      -2.069779     -3.734584      0.692168
  C       3.648630      0.598225      0.572334
  H       3.787557      1.266983     -0.274996
  H       3.515720      1.212453      1.461607
  H       4.549299      0.001066      0.693741
  C       1.445142      2.588580      0.197565
  H       1.936685      2.681649      1.162984
  H       2.202532      2.696637     -0.575741
  H       0.794131      3.457829      0.105885








