%nprocshared=16
%mem=16GB
%chk=DDL-LR-15.chk
#p CAM-B3LYP TZVP em=gd3bj td(nstates=6,root=1) scrf=(Solvent=TetraHydroFuran)

Title Card Required

0 1
  O       2.831688     -1.565178      0.183441
  O      -3.423665     -1.622229      0.069786
  N      -0.633135      1.511136     -0.368879
  H      -0.942561      2.467710     -0.419275
  C      -1.236915     -0.757233     -0.222152
  C       0.701113      1.295865     -0.100754
  C      -1.608889      0.540581     -0.293451
  C      -2.223331     -1.825552     -0.103320
  C       0.223881     -1.117871     -0.352232
  H       0.468949     -1.954358      0.298610
  H       0.442781     -1.473087     -1.367459
  C       1.151040      0.025323     -0.009411
  C       2.512378     -0.390739      0.331325
  C      -3.000700      1.081495     -0.293546
  H      -3.009522      2.115344     -0.640334
  H      -3.660390      0.492909     -0.924444
  H      -3.424665      1.050969      0.710284
  C      -1.740374     -3.248728     -0.201498
  H      -2.585192     -3.925463     -0.304892
  H      -1.061907     -3.394892     -1.042784
  H      -1.189079     -3.528892      0.699258
  C       3.541074      0.553154      0.903260
  H       4.022400      1.124639      0.108241
  H       3.127817      1.255629      1.622530
  H       4.303116     -0.054155      1.385890
  C       1.463239      2.575772      0.053868
  H       1.526102      2.871987      1.101935
  H       2.468779      2.516222     -0.344710
  H       0.955968      3.379641     -0.479286








