%nprocshared=16
%mem=16GB
%chk=DDL-LR-12.chk
#p CAM-B3LYP TZVP em=gd3bj td(nstates=6,root=1) scrf=(Solvent=TetraHydroFuran)

Title Card Required

0 1
  O       2.819342     -1.574390      0.247554
  O      -3.441580     -1.632031     -0.071868
  N      -0.637781      1.516419     -0.299111
  H      -0.949276      2.472238     -0.344617
  C      -1.240400     -0.757860     -0.210930
  C       0.693344      1.301132     -0.047220
  C      -1.612101      0.541111     -0.281014
  C      -2.216329     -1.822693     -0.159665
  C       0.221441     -1.122528     -0.250725
  H       0.429608     -1.910154      0.472051
  H       0.480829     -1.546020     -1.228240
  C       1.148525      0.031837      0.038584
  C       2.512634     -0.389126      0.340325
  C      -2.999784      1.078575     -0.333808
  H      -3.017206      2.064162     -0.802629
  H      -3.677981      0.438330     -0.891673
  H      -3.418927      1.171933      0.669145
  C      -1.766752     -3.253470     -0.222500
  H      -2.557463     -3.932951     -0.537597
  H      -0.926863     -3.408270     -0.900771
  H      -1.429563     -3.598137      0.759472
  C       3.578928      0.568929      0.802995
  H       3.959841      1.171474     -0.021782
  H       3.245195      1.246368      1.585396
  H       4.397099     -0.039236      1.181679
  C       1.455575      2.579260      0.098698
  H       1.651134      2.815355      1.144713
  H       2.404150      2.569574     -0.427339
  H       0.894362      3.420169     -0.309122








