%nprocshared=16
%mem=16GB
%chk=DDL-LR-1.chk
#p CAM-B3LYP TZVP em=gd3bj td(nstates=6,root=1) scrf=(Solvent=TetraHydroFuran)

Title Card Required

0 1
  O       2.794208     -1.560981      0.486295
  O      -3.416764     -1.653660     -0.583623
  N      -0.662164      1.524635     -0.051154
  H      -0.981904      2.477944     -0.090747
  C      -1.239328     -0.776881     -0.172451
  C       0.668258      1.315706      0.141399
  C      -1.620706      0.535895     -0.231529
  C      -2.152267     -1.832011     -0.349031
  C       0.201528     -1.138845      0.105261
  H       0.268899     -1.717327      1.031365
  H       0.574171     -1.806034     -0.675043
  C       1.142960      0.041038      0.201451
  C       2.527034     -0.363204      0.382312
  C      -2.987109      1.073130     -0.464771
  H      -2.996424      1.781455     -1.298371
  H      -3.700603      0.284517     -0.703038
  H      -3.367346      1.592097      0.420343
  C      -1.819755     -3.297814     -0.283465
  H      -2.075122     -3.810822     -1.213579
  H      -0.760164     -3.441365     -0.092866
  H      -2.378267     -3.783842      0.520388
  C       3.679388      0.611787      0.434016
  H       3.674822      1.314240     -0.396368
  H       3.671978      1.187594      1.359704
  H       4.596100      0.028244      0.400928
  C       1.442999      2.594731      0.258978
  H       2.089234      2.605268      1.131161
  H       2.060649      2.771979     -0.620554
  H       0.765692      3.442525      0.352994








