%nprocshared=16
%mem=16GB
%chk=DDL-LR-8.chk
#p CAM-B3LYP TZVP em=gd3bj td(nstates=6,root=1) scrf=(Solvent=TetraHydroFuran)

Title Card Required

0 1
  O       2.806315     -1.578061      0.331845
  O      -3.448266     -1.645141     -0.254192
  N      -0.645482      1.521607     -0.209486
  H      -0.961305      2.475950     -0.251416
  C      -1.242303     -0.761573     -0.197304
  C       0.683636      1.307594      0.020234
  C      -1.615939      0.540512     -0.263171
  C      -2.199001     -1.822689     -0.230343
  C       0.216573     -1.127758     -0.121764
  H       0.374887     -1.844670      0.685213
  H       0.523066     -1.637411     -1.041146
  C       1.146351      0.038364      0.097458
  C       2.515160     -0.383483      0.354657
  C      -2.996812      1.076549     -0.380659
  H      -3.015801      1.978019     -0.998143
  H      -3.695842      0.376515     -0.832338
  H      -3.405481      1.329278      0.600140
  C      -1.793233     -3.265365     -0.249152
  H      -2.438811     -3.910660     -0.846780
  H      -0.785454     -3.430225     -0.628730
  H      -1.796285     -3.680729      0.763610
  C       3.621661      0.586744      0.671518
  H       3.865367      1.228164     -0.174188
  H       3.400113      1.228668      1.521781
  H       4.495665     -0.016778      0.905243
  C       1.448622      2.584541      0.155174
  H       1.816605      2.738746      1.167988
  H       2.296707      2.641499     -0.521662
  H       0.829289      3.451792     -0.074384








