%nprocshared=16
%mem=16GB
%chk=DDL-LR-14.chk
#p CAM-B3LYP TZVP em=gd3bj td(nstates=6,root=1) scrf=(Solvent=TetraHydroFuran)

Title Card Required

0 1
  O       2.827452     -1.568839      0.204959
  O      -3.430950     -1.625334      0.021855
  N      -0.634557      1.513028     -0.345340
  H      -0.944428      2.469426     -0.393936
  C      -1.238288     -0.757245     -0.218258
  C       0.698467      1.297640     -0.082536
  C      -1.609976      0.540840     -0.289423
  C      -2.221601     -1.824288     -0.122425
  C       0.223177     -1.119463     -0.317897
  H       0.456209     -1.940001      0.357832
  H       0.455957     -1.498149     -1.321033
  C       1.150105      0.027647      0.007032
  C       2.512323     -0.390422      0.334072
  C      -3.000506      1.080343     -0.307623
  H      -3.013105      2.099703     -0.695799
  H      -3.666555      0.473810     -0.914794
  H      -3.423211      1.091434      0.697478
  C      -1.749793     -3.249627     -0.208550
  H      -2.581045     -3.930142     -0.380613
  H      -1.016046     -3.399050     -1.001587
  H      -1.264885     -3.553008      0.722990
  C       3.554276      0.558675      0.869593
  H       4.002458      1.140716      0.063339
  H       3.167035      1.252999      1.611084
  H       4.336239     -0.049505      1.318129
  C       1.460390      2.576843      0.069140
  H       1.567617      2.853334      1.118694
  H       2.448911      2.534006     -0.373046
  H       0.934329      3.394631     -0.423336








