%nprocshared=16
%mem=16GB
%chk=DDL-LR-2.chk
#p CAM-B3LYP TZVP em=gd3bj td(nstates=6,root=1) scrf=(Solvent=TetraHydroFuran)

Title Card Required

0 1
  O       2.795308     -1.565315      0.463013
  O      -3.424701     -1.654191     -0.534626
  N      -0.659517      1.524773     -0.074715
  H      -0.979176      2.478028     -0.114855
  C      -1.240182     -0.773853     -0.176353
  C       0.670305      1.314751      0.122953
  C      -1.620178      0.536803     -0.235920
  C      -2.160037     -1.829739     -0.331926
  C       0.204387     -1.136947      0.071119
  H       0.285831     -1.736138      0.982334
  H       0.568149     -1.781461     -0.732650
  C       1.143487      0.041391      0.185375
  C       2.524526     -0.367001      0.378304
  C      -2.988745      1.073889     -0.451395
  H      -2.999897      1.813288     -1.257431
  H      -3.702706      0.297015     -0.722190
  H      -3.374115      1.555500      0.452092
  C      -1.816725     -3.291210     -0.279572
  H      -2.129137     -3.827268     -1.178606
  H      -0.747333     -3.443423     -0.161436
  H      -2.308885     -3.774663      0.568561
  C       3.672173      0.608547      0.469490
  H       3.703898      1.302937     -0.367246
  H       3.632631      1.194142      1.387788
  H       4.586884      0.020836      0.475404
  C       1.443181      2.593015      0.242867
  H       2.052124      2.624459      1.141545
  H       2.097674      2.753037     -0.612571
  H       0.770776      3.448800      0.290648








