%nprocshared=16
%mem=16GB
%chk=DDL-LR-9.chk
#p CAM-B3LYP TZVP em=gd3bj td(nstates=6,root=1) scrf=(Solvent=TetraHydroFuran)

Title Card Required

0 1
  O       2.809094     -1.578071      0.310833
  O      -3.448305     -1.642133     -0.208932
  N      -0.643429      1.520514     -0.231603
  H      -0.958187      2.475215     -0.274119
  C      -1.242103     -0.760338     -0.200636
  C       0.685997      1.306078      0.003643
  C      -1.615047      0.540802     -0.267709
  C      -2.204093     -1.822350     -0.213132
  C       0.217972     -1.126518     -0.153404
  H       0.388615     -1.861769      0.633669
  H       0.513562     -1.614585     -1.088375
  C       1.146806      0.037003      0.083160
  C       2.514283     -0.385286      0.350937
  C      -2.997744      1.076935     -0.369395
  H      -3.017073      2.001280     -0.951526
  H      -3.692154      0.391021     -0.848576
  H      -3.409410      1.290526      0.619094
  C      -1.787580     -3.262088     -0.242795
  H      -2.477526     -3.919570     -0.773032
  H      -0.813671     -3.424774     -0.704050
  H      -1.702360     -3.660932      0.772964
  C       3.611768      0.582593      0.704248
  H       3.890002      1.214559     -0.138249
  H       3.361592      1.233561      1.539281
  H       4.474003     -0.022524      0.974707
  C       1.450081      2.583203      0.141248
  H       1.775722      2.757856      1.165587
  H       2.325584      2.623381     -0.500244
  H       0.843601      3.446410     -0.133595








