%nprocshared=16
%mem=16GB
%chk=DDL-LR-11.chk
#p CAM-B3LYP TZVP em=gd3bj td(nstates=6,root=1) scrf=(Solvent=TetraHydroFuran)

Title Card Required

0 1
  O       2.815621     -1.576243      0.268713
  O      -3.445005     -1.635482     -0.117911
  N      -0.639568      1.517918     -0.276379
  H      -0.952106      2.473375     -0.320663
  C      -1.241157     -0.758478     -0.207429
  C       0.690852      1.302832     -0.030027
  C      -1.613122      0.541105     -0.276652
  C      -2.212799     -1.822330     -0.177811
  C       0.220402     -1.123938     -0.217835
  H       0.415998     -1.894536      0.527171
  H       0.492414     -1.569109     -1.181776
  C       1.147875      0.033718      0.053776
  C       2.513020     -0.388108      0.343741
  C      -2.999234      1.077919     -0.346075
  H      -3.017890      2.044402     -0.853819
  H      -3.683159      0.421840     -0.878341
  H      -3.416146      1.211824      0.653520
  C      -1.774326     -3.256080     -0.229394
  H      -2.537000     -3.930844     -0.617207
  H      -0.885348     -3.413517     -0.840920
  H      -1.517841     -3.619608      0.770330
  C       3.590415      0.573699      0.769951
  H       3.937285      1.186228     -0.062084
  H       3.284130      1.242443      1.571062
  H       4.424707     -0.033782      1.112948
  C       1.453539      2.580551      0.113073
  H       1.692889      2.796192      1.154036
  H       2.379391      2.587432     -0.452949
  H       0.876162      3.430577     -0.251047








