%nprocshared=16
%mem=16GB
%chk=DDL-LR-0.chk
#p CAM-B3LYP TZVP em=gd3bj td(nstates=6,root=1) scrf=(Solvent=TetraHydroFuran)

Title Card Required

0 1
  O       2.793225     -1.555972      0.510090
  O      -3.407705     -1.652480     -0.633272
  N      -0.664910      1.524279     -0.027060
  H      -0.984590      2.477708     -0.065859
  C      -1.238324     -0.780233     -0.168339
  C       0.666282      1.316650      0.160431
  C      -1.621191      0.534939     -0.227213
  C      -2.144178     -1.834643     -0.366235
  C       0.198380     -1.140819      0.140331
  H       0.251192     -1.698110      1.080730
  H       0.579791     -1.830502     -0.615225
  C       1.142448      0.040475      0.218191
  C       2.529931     -0.359068      0.386233
  C      -2.985445      1.072234     -0.478838
  H      -2.992835      1.748372     -1.338866
  H      -3.697420      0.272207     -0.684216
  H      -3.359990      1.628262      0.386278
  C      -1.822776     -3.305632     -0.287236
  H      -2.022943     -3.794111     -1.243849
  H      -0.776657     -3.438264     -0.028976
  H      -2.442542     -3.790710      0.470389
  C       3.686355      0.614954      0.397752
  H       3.645189      1.325184     -0.424811
  H       3.711561      1.180802      1.329671
  H       4.603823      0.036287      0.325461
  C       1.443132      2.596652      0.275732
  H       2.125549      2.585948      1.119318
  H       2.022697      2.790907     -0.626246
  H       0.761965      3.434679      0.415641








