%nprocshared=16
%mem=16GB
%chk=DDL-LR-7.chk
#p CAM-B3LYP TZVP em=gd3bj td(nstates=6,root=1) scrf=(Solvent=TetraHydroFuran)

Title Card Required

0 1
  O       2.803843     -1.577453      0.352927
  O      -3.447142     -1.647829     -0.299548
  N      -0.647611      1.522555     -0.187447
  H      -0.964417      2.476576     -0.228949
  C      -1.242332     -0.763014     -0.193979
  C       0.681317      1.309019      0.036787
  C      -1.616781      0.540130     -0.258611
  C      -2.193477     -1.823233     -0.247334
  C       0.215033     -1.129031     -0.090323
  H       0.361054     -1.827180      0.735832
  H       0.531884     -1.660530     -0.993229
  C       1.145916      0.039501      0.111628
  C       2.516203     -0.381424      0.358442
  C      -2.995756      1.076197     -0.391837
  H      -3.014051      1.953637     -1.043469
  H      -3.698916      0.362498     -0.815331
  H      -3.401196      1.367651      0.579854
  C      -1.798261     -3.268807     -0.255187
  H      -2.394773     -3.899865     -0.916276
  H      -0.763290     -3.435128     -0.550384
  H      -1.889605     -3.699752      0.746879
  C       3.631073      0.590720      0.638740
  H       3.840101      1.241419     -0.208842
  H       3.438557      1.223510      1.503105
  H       4.515387     -0.010954      0.835429
  C       1.447320      2.585881      0.169117
  H       1.857053      2.719691      1.168285
  H       2.266584      2.659729     -0.541445
  H       0.816285      3.455488     -0.014833








