%nprocshared=16
%mem=16GB
%chk=DDL-LR-13.chk
#p CAM-B3LYP TZVP em=gd3bj td(nstates=6,root=1) scrf=(Solvent=TetraHydroFuran)

Title Card Required

0 1
  O       2.823309     -1.571917      0.226312
  O      -3.436910     -1.628622     -0.025317
  N      -0.636108      1.514788     -0.322093
  H      -0.946690      2.470928     -0.369045
  C      -1.239446     -0.757451     -0.214530
  C       0.695881      1.299398     -0.064709
  C      -1.611050      0.541021     -0.285275
  C      -2.219268     -1.823338     -0.141202
  C       0.222365     -1.121029     -0.284076
  H       0.443052     -1.925290      0.415621
  H       0.468655     -1.522421     -1.274644
  C       1.149267      0.029813      0.023014
  C       2.512405     -0.389892      0.337086
  C      -3.000206      1.079376     -0.321017
  H      -3.015643      2.082621     -0.749928
  H      -3.672431      0.455635     -0.903850
  H      -3.421290      1.131777      0.683783
  C      -1.758574     -3.251268     -0.215546
  H      -2.571994     -3.932686     -0.458416
  H      -0.970756     -3.403459     -0.954330
  H      -1.345091     -3.576004      0.743372
  C       3.566886      0.563926      0.836195
  H       3.981588      1.156312      0.020017
  H       3.206157      1.249899      1.598725
  H       4.367587     -0.044502      1.250077
  C       1.457849      2.578016      0.084068
  H       1.609332      2.834429      1.132945
  H       2.427350      2.551775     -0.400645
  H       0.913772      3.408164     -0.366591








