%nprocshared=16
%mem=16GB
%chk=DDL-LR-3.chk
#p CAM-B3LYP TZVP em=gd3bj td(nstates=6,root=1) scrf=(Solvent=TetraHydroFuran)

Title Card Required

0 1
  O       2.796572     -1.568991      0.440203
  O      -3.431486     -1.654070     -0.486294
  N      -0.656964      1.524703     -0.097837
  H      -0.976379      2.477974     -0.138344
  C      -1.240896     -0.771137     -0.180089
  C       0.672412      1.313758      0.105010
  C      -1.619604      0.537643     -0.240380
  C      -2.167464     -1.827828     -0.314907
  C       0.206976     -1.135138      0.037772
  H       0.302030     -1.754685      0.933436
  H       0.561745     -1.756861     -0.788214
  C       1.144013      0.041517      0.169872
  C       2.522353     -0.370473      0.374262
  C      -2.990330      1.074518     -0.438630
  H      -3.003222      1.843866     -1.215974
  H      -3.703765      0.309685     -0.741425
  H      -3.380372      1.518519      0.481620
  C      -1.813605     -3.285570     -0.275443
  H      -2.184292     -3.843348     -1.138230
  H      -0.738937     -3.444298     -0.234315
  H      -2.234226     -3.763272      0.613959
  C       3.664664      0.605216      0.504302
  H       3.732396      1.291285     -0.337356
  H       3.593485      1.200466      1.414059
  H       4.576065      0.013913      0.548993
  C       1.443626      2.591447      0.227314
  H       2.014280      2.643565      1.150374
  H       2.133709      2.734136     -0.602379
  H       0.777218      3.453462      0.228643








