%nprocshared=16
%mem=16GB
%oldchk=DDL-LR-12.chk
%chk=DDL-LR-Eq-12.chk
#p CAM-B3LYP TZVP em=gd3bj td(Eqsolv,nstates=6,root=1) scrf=(Solvent=TetraHydroFuran) Geom=Check Guess=Read

Title Card Required

0 1






