%nprocshared=16
%mem=16GB
%chk=DDL-LR-16.chk
#p CAM-B3LYP TZVP em=gd3bj td(nstates=6,root=1) scrf=(Solvent=TetraHydroFuran)

Title Card Required

0 1
  O       2.835925     -1.560951      0.161667
  O      -3.415029     -1.619354      0.118640
  N      -0.631846      1.509108     -0.392752
  H      -0.941148      2.465760     -0.445047
  C      -1.235313     -0.757398     -0.226260
  C       0.703835      1.294074     -0.119428
  C      -1.607796      0.540263     -0.297357
  C      -2.224477     -1.827114     -0.083849
  C       0.224485     -1.116306     -0.387165
  H       0.481138     -1.968430      0.237854
  H       0.429148     -1.447151     -1.414001
  C       1.152071      0.022822     -0.026381
  C       2.512561     -0.390870      0.328886
  C      -3.000808      1.082849     -0.278698
  H      -3.004853      2.129495     -0.583623
  H      -3.653961      0.512986     -0.932748
  H      -3.425621      1.010430      0.722260
  C      -1.730233     -3.248785     -0.194346
  H      -2.585065     -3.918810     -0.231723
  H      -1.107685     -3.390760     -1.078323
  H      -1.117542     -3.503371      0.673002
  C       3.527245      0.547336      0.937308
  H       4.041376      1.108011      0.154821
  H       3.088462      1.257749      1.633131
  H       4.268268     -0.058347      1.453493
  C       1.466445      2.574840      0.038198
  H       1.484868      2.890303      1.082650
  H       2.486921      2.498359     -0.315789
  H       0.978629      3.363262     -0.534420








