%nprocshared=16
%mem=16GB
%chk=DDL-LR-10.chk
#p CAM-B3LYP TZVP em=gd3bj td(nstates=6,root=1) scrf=(Solvent=Water)

Title Card Required

0 1
  O       2.734014     -1.558900      0.793923
  O      -3.259804     -1.649664     -1.022918
  N      -0.698803      1.514889      0.048595
  H      -1.007133      2.473720     -0.013227
  C      -1.250234     -0.760451     -0.161152
  C       0.642107      1.314882      0.249530
  C      -1.623070      0.557362     -0.253139
  C      -2.157038     -1.841258     -0.513425
  C       0.106747     -1.095213      0.369667
  H       0.025487     -1.465938      1.402961
  H       0.530347     -1.943300     -0.169918
  C       1.098267      0.025718      0.340270
  C       2.486970     -0.392620      0.480434
  C      -2.956238      1.091804     -0.645477
  H      -3.028011      2.156977     -0.438305
  H      -3.139188      0.940961     -1.705527
  H      -3.755054      0.580038     -0.122441
  C      -1.714567     -3.255362     -0.252065
  H      -2.563296     -3.924083     -0.337708
  H      -0.968567     -3.561565     -0.983194
  H      -1.263597     -3.376512      0.728249
  C       3.648083      0.532705      0.213092
  H       3.456938      1.239105     -0.590126
  H       3.898485      1.098535      1.112426
  H       4.508692     -0.081325     -0.042984
  C       1.416357      2.588057      0.357753
  H       2.210490      2.520251      1.091003
  H       1.860168      2.867900     -0.597243
  H       0.761446      3.403289      0.660945








