%nprocshared=16
%mem=16GB
%chk=DDL-LR-13.chk
#p CAM-B3LYP TZVP em=gd3bj td(nstates=6,root=1) scrf=(Solvent=Water)

Title Card Required

0 1
  O       2.741595     -1.558465      0.760281
  O      -3.238037     -1.643825     -1.078266
  N      -0.706159      1.513866      0.096963
  H      -1.014389      2.471855      0.038108
  C      -1.248955     -0.759125     -0.155137
  C       0.641320      1.305949      0.271082
  C      -1.621025      0.549228     -0.235850
  C      -2.153207     -1.837192     -0.536163
  C       0.100317     -1.102153      0.411519
  H       0.000684     -1.441704      1.452344
  H       0.526714     -1.958701     -0.108748
  C       1.095069      0.025045      0.352977
  C       2.490051     -0.391226      0.464639
  C      -2.947700      1.086696     -0.653728
  H      -3.036023      2.141031     -0.399083
  H      -3.084171      0.983518     -1.727801
  H      -3.758820      0.540117     -0.186713
  C      -1.720508     -3.251368     -0.252136
  H      -2.560520     -3.922597     -0.395986
  H      -0.922986     -3.547380     -0.932973
  H      -1.333788     -3.366582      0.757715
  C       3.647338      0.536881      0.189614
  H       3.451130      1.237521     -0.617493
  H       3.895556      1.109342      1.085122
  H       4.510000     -0.075299     -0.063290
  C       1.417790      2.581990      0.352000
  H       2.241648      2.518481      1.051690
  H       1.817491      2.861750     -0.622772
  H       0.769583      3.392345      0.682082








