%nprocshared=16
%mem=16GB
%chk=DDL-LR-4.chk
#p CAM-B3LYP TZVP em=gd3bj td(nstates=6,root=1) scrf=(Solvent=Water)

Title Card Required

0 1
  O       2.718277     -1.559497      0.860925
  O      -3.301746     -1.661440     -0.911702
  N      -0.684117      1.516403     -0.048160
  H      -0.992546      2.477061     -0.115788
  C      -1.252593     -0.763454     -0.173040
  C       0.643730      1.333143      0.206470
  C      -1.627723      0.573989     -0.287871
  C      -2.164575     -1.849851     -0.468011
  C       0.119411     -1.081788      0.286854
  H       0.075146     -1.513853      1.302495
  H       0.537181     -1.911825     -0.291428
  C       1.104649      0.026718      0.314956
  C       2.480332     -0.395539      0.511975
  C      -2.976931      1.101821     -0.630508
  H      -3.012381      2.183685     -0.518062
  H      -3.248368      0.857054     -1.653579
  H      -3.742106      0.663590      0.001949
  C      -1.699932     -3.267048     -0.251406
  H      -2.562912     -3.923689     -0.220564
  H      -1.065681     -3.588076     -1.077334
  H      -1.126364     -3.395774      0.661491
  C       3.649423      0.524387      0.260009
  H       3.468415      1.242209     -0.535322
  H       3.904173      1.076921      1.166879
  H       4.505969     -0.093316     -0.002387
  C       1.414994      2.600889      0.368861
  H       2.145800      2.523987      1.167131
  H       1.944021      2.879357     -0.542969
  H       0.746455      3.423934      0.618134








