%nprocshared=16
%mem=16GB
%chk=DDL-LR-7.chk
#p CAM-B3LYP TZVP em=gd3bj td(nstates=6,root=1) scrf=(Solvent=Water)

Title Card Required

0 1
  O       2.726246     -1.559245      0.827442
  O      -3.281019     -1.655530     -0.967451
  N      -0.691461      1.515734      0.000262
  H      -0.999859      2.475454     -0.064475
  C      -1.251450     -0.761891     -0.167114
  C       0.642909      1.323937      0.228017
  C      -1.625299      0.565605     -0.270470
  C      -2.160825     -1.845473     -0.490736
  C       0.113102     -1.088425      0.328158
  H       0.050286     -1.489975      1.353060
  H       0.533837     -1.927683     -0.230758
  C       1.101457      0.026277      0.327614
  C       2.483734     -0.394057      0.496204
  C      -2.965946      1.096847     -0.637804
  H      -3.020104      2.171199     -0.478012
  H      -3.193958      0.898743     -1.680796
  H      -3.749450      0.621230     -0.059504
  C      -1.707716     -3.260569     -0.251772
  H      -2.564115     -3.924436     -0.279177
  H      -1.016215     -3.575132     -1.031400
  H      -1.194363     -3.386246      0.696136
  C       3.648777      0.528546      0.236540
  H       3.462695      1.240667     -0.562756
  H       3.901350      1.087741      1.139658
  H       4.507350     -0.087322     -0.022695
  C       1.415417      2.594352      0.363350
  H       2.178539      2.522079      1.129480
  H       1.902343      2.873764     -0.570644
  H       0.753737      3.413809      0.639641








