%nprocshared=16
%mem=16GB
%chk=DDL-LR-2.chk
#p CAM-B3LYP TZVP em=gd3bj td(nstates=6,root=1) scrf=(Solvent=Water)

Title Card Required

0 1
  O       2.712851     -1.559613      0.883249
  O      -3.315314     -1.665408     -0.874337
  N      -0.679219      1.516753     -0.080517
  H      -0.987645      2.478065     -0.150077
  C      -1.253310     -0.764568     -0.176973
  C       0.644287      1.339372      0.192064
  C      -1.629445      0.579666     -0.299513
  C      -2.167058     -1.852857     -0.452815
  C       0.123602     -1.077451      0.259392
  H       0.091772     -1.529689      1.268376
  H       0.539325     -1.901117     -0.331821
  C       1.106781      0.026943      0.306498
  C       2.477968     -0.396554      0.522494
  C      -2.984978      1.105106     -0.625749
  H      -3.007370      2.191070     -0.544849
  H      -3.284356      0.829656     -1.634121
  H      -3.736338      0.692372      0.042023
  C      -1.694251     -3.272072     -0.251194
  H      -2.561012     -3.922619     -0.181563
  H      -1.099459     -3.596362     -1.106613
  H      -1.081859     -3.401998      0.637142
  C       3.649830      0.521608      0.275676
  H       3.472211      1.243224     -0.516983
  H       3.906040      1.069681      1.185031
  H       4.505025     -0.097319      0.011168
  C       1.415004      2.605383      0.372519
  H       2.123567      2.525312      1.191761
  H       1.971513      2.882941     -0.523947
  H       0.741838      3.430474      0.603681








