%nprocshared=16
%mem=16GB
%chk=DDL-LR-6.chk
#p CAM-B3LYP TZVP em=gd3bj td(nstates=6,root=1) scrf=(Solvent=Water)

Title Card Required

0 1
  O       2.723612     -1.559339      0.838605
  O      -3.287981     -1.657495     -0.948903
  N      -0.689013      1.515977     -0.015866
  H      -0.997426      2.476004     -0.081568
  C      -1.251839     -0.762398     -0.169093
  C       0.643180      1.326988      0.220841
  C      -1.626085      0.568383     -0.276262
  C      -2.162079     -1.846914     -0.483168
  C       0.115209     -1.086195      0.314371
  H       0.058564     -1.497952      1.336283
  H       0.534969     -1.922424     -0.250996
  C       1.102520      0.026437      0.323397
  C       2.482619     -0.394545      0.501460
  C      -2.969463      1.098512     -0.635340
  H      -3.017506      2.175553     -0.491334
  H      -3.212144      0.884777     -1.671995
  H      -3.747187      0.635230     -0.038845
  C      -1.705223     -3.262587     -0.251651
  H      -2.563938     -3.924306     -0.259636
  H      -1.032521     -3.579516     -1.046975
  H      -1.171543     -3.389446      0.684856
  C       3.648997      0.527161      0.244360
  H       3.464605      1.241184     -0.553620
  H       3.902295      1.084138      1.148732
  H       4.506894     -0.089320     -0.015928
  C       1.415218      2.596504      0.365194
  H       2.167711      2.522705      1.142124
  H       1.916293      2.875658     -0.561537
  H       0.751262      3.417227      0.632495








