%nprocshared=16
%mem=16GB
%chk=DDL-LR-11.chk
#p CAM-B3LYP TZVP em=gd3bj td(nstates=6,root=1) scrf=(Solvent=Water)

Title Card Required

0 1
  O       2.736562     -1.558765      0.782724
  O      -3.252610     -1.647715     -1.041378
  N      -0.701254      1.514567      0.064713
  H      -1.009553      2.473113      0.003872
  C      -1.249814     -0.759996     -0.159153
  C       0.641843      1.311891      0.256708
  C      -1.622369      0.554640     -0.247371
  C      -2.155765     -1.839887     -0.520997
  C       0.104613     -1.097510      0.383577
  H       0.017221     -1.457881      1.419476
  H       0.529152     -1.948457     -0.149567
  C       1.097202      0.025506      0.344498
  C       2.488014     -0.392151      0.475172
  C      -2.953268      1.090107     -0.648155
  H      -3.030675      2.151849     -0.425167
  H      -3.120866      0.955123     -1.713222
  H      -3.756516      0.566584     -0.143732
  C      -1.716646     -3.253900     -0.252120
  H      -2.562582     -3.923713     -0.357175
  H      -0.953131     -3.556904     -0.966656
  H      -1.286909     -3.373223      0.738368
  C       3.647841      0.534095      0.205270
  H       3.455008      1.238579     -0.599248
  H       3.897516      1.102135      1.103333
  H       4.509131     -0.079320     -0.049751
  C       1.416781      2.586009      0.355855
  H       2.220966      2.519656      1.077988
  H       1.845994      2.865882     -0.605873
  H       0.764112      3.399688      0.668010








