%nprocshared=16
%mem=16GB
%chk=DDL-LR-5.chk
#p CAM-B3LYP TZVP em=gd3bj td(nstates=6,root=1) scrf=(Solvent=Water)

Title Card Required

0 1
  O       2.720956     -1.559423      0.849765
  O      -3.294889     -1.659465     -0.930321
  N      -0.686565      1.516200     -0.032006
  H      -0.994989      2.476539     -0.098671
  C      -1.252221     -0.762919     -0.171068
  C       0.643454      1.330057      0.213659
  C      -1.626893      0.571178     -0.282063
  C      -2.163329     -1.848374     -0.475593
  C       0.117312     -1.083983      0.300604
  H       0.066850     -1.505911      1.319428
  H       0.536084     -1.917138     -0.271218
  C       1.103584      0.026584      0.319178
  C       2.481485     -0.395040      0.506718
  C      -2.973124      1.100170     -0.632911
  H      -3.014930      2.179714     -0.504687
  H      -3.230283      0.870878     -1.662921
  H      -3.744737      0.649353     -0.018359
  C      -1.702628     -3.264746     -0.251527
  H      -2.563536     -3.924056     -0.240095
  H      -1.049015     -3.583830     -1.062288
  H      -1.148874     -3.392622      0.673304
  C       3.649213      0.525774      0.252183
  H       3.466512      1.241698     -0.544475
  H       3.903236      1.080532      1.157805
  H       4.506434     -0.091317     -0.009159
  C       1.415077      2.598683      0.367030
  H       2.156797      2.523341      1.154674
  H       1.930187      2.877522     -0.552311
  H       0.748835      3.420602      0.625326








