%nprocshared=16
%mem=16GB
%chk=DDL-LR-12.chk
#p CAM-B3LYP TZVP em=gd3bj td(nstates=6,root=1) scrf=(Solvent=Water)

Title Card Required

0 1
  O       2.739089     -1.558620      0.771511
  O      -3.245355     -1.645769     -1.059826
  N      -0.703705      1.514226      0.080834
  H      -1.011972      2.472492      0.020982
  C      -1.249387     -0.759555     -0.157148
  C       0.641581      1.308914      0.263892
  C      -1.621687      0.551929     -0.241609
  C      -2.154488     -1.838532     -0.528575
  C       0.102470     -1.099823      0.397526
  H       0.008954     -1.449804      1.435936
  H       0.527941     -1.953591     -0.129178
  C       1.096136      0.025281      0.348733
  C       2.489041     -0.391686      0.469907
  C      -2.950424      1.088404     -0.650903
  H      -3.033347      2.146532     -0.412091
  H      -3.102525      0.969311     -1.720644
  H      -3.757771      0.553276     -0.165160
  C      -1.718625     -3.252570     -0.252146
  H      -2.561654     -3.923218     -0.376604
  H      -0.937936     -3.552174     -0.949910
  H      -1.310311     -3.369913      0.748190
  C       3.647592      0.535486      0.197444
  H       3.453072      1.238051     -0.608370
  H       3.896540      1.105737      1.094232
  H       4.509567     -0.077312     -0.056519
  C       1.417259      2.583987      0.353938
  H       2.231353      2.519066      1.064883
  H       1.831768      2.863832     -0.614382
  H       0.766824      3.396041      0.675055








