%nprocshared=16
%mem=16GB
%chk=DDL-LR-16.chk
#p CAM-B3LYP TZVP em=gd3bj td(nstates=6,root=1) scrf=(Solvent=Water)

Title Card Required

0 1
  O       2.748993     -1.557937      0.726476
  O      -3.215698     -1.637996     -1.133583
  N      -0.713528      1.512669      0.145422
  H      -1.021637      2.469859      0.089615
  C      -1.247623     -0.757904     -0.149065
  C       0.640547      1.297118      0.292714
  C      -1.619146      0.541177     -0.218595
  C      -2.149335     -1.833250     -0.559007
  C       0.093792     -1.109240      0.453791
  H      -0.024157     -1.417270      1.501295
  H       0.522943     -1.973897     -0.047176
  C       1.091860      0.024264      0.365771
  C       2.492986     -0.389869      0.448813
  C      -2.940178      1.081555     -0.662710
  H      -3.044043      2.123474     -0.360508
  H      -3.029087      1.026156     -1.747756
  H      -3.760742      0.501530     -0.252011
  C      -1.725631     -3.248470     -0.251855
  H      -2.555972     -3.920006     -0.453795
  H      -0.879616     -3.532621     -0.881184
  H      -1.404524     -3.356476      0.784567
  C       3.646539      0.541087      0.166088
  H       3.445266      1.235920     -0.644882
  H       3.892547      1.120187      1.057723
  H       4.511278     -0.069226     -0.083622
  C       1.419679      2.576145      0.346037
  H       2.271987      2.516745      1.011606
  H       1.774372      2.855310     -0.647229
  H       0.778129      3.380967      0.703060








