%nprocshared=16
%mem=16GB
%chk=DDL-LR-1.chk
#p CAM-B3LYP TZVP em=gd3bj td(nstates=6,root=1) scrf=(Solvent=Water)

Title Card Required

0 1
  O       2.710105     -1.559656      0.894419
  O      -3.322030     -1.667401     -0.855584
  N      -0.676769      1.516899     -0.096726
  H      -0.985185      2.478547     -0.167257
  C      -1.253653     -0.765147     -0.178936
  C       0.644569      1.342515      0.184843
  C      -1.630336      0.582533     -0.305347
  C      -2.168296     -1.854384     -0.445198
  C       0.125696     -1.075310      0.245672
  H       0.100105     -1.537583      1.251184
  H       0.540371     -1.895721     -0.352014
  C       1.107848      0.027034      0.302259
  C       2.476757     -0.397070      0.527756
  C      -2.989216      1.106744     -0.623377
  H      -3.004913      2.194493     -0.558246
  H      -3.302250      0.816092     -1.624024
  H      -3.733220      0.706899      0.061788
  C      -1.691276     -3.274788     -0.251111
  H      -2.559749     -3.921926     -0.162109
  H      -1.116536     -3.600406     -1.120849
  H      -1.059872     -3.405070      0.624637
  C       3.650026      0.520215      0.283519
  H       3.474105      1.243728     -0.507795
  H       3.906971      1.066050      1.194112
  H       4.504546     -0.099325      0.017952
  C       1.415097      2.607671      0.374351
  H       2.112335      2.525993      1.203936
  H       1.985169      2.884692     -0.514271
  H       0.739601      3.433684      0.596419








