%nprocshared=16
%mem=16GB
%chk=DDL-LR-15.chk
#p CAM-B3LYP TZVP em=gd3bj td(nstates=6,root=1) scrf=(Solvent=Water)

Title Card Required

0 1
  O       2.746546     -1.558123      0.737766
  O      -3.223210     -1.639939     -1.115140
  N      -0.711070      1.513087      0.129253
  H      -1.019221      2.470539      0.072420
  C      -1.248072     -0.758300     -0.151096
  C       0.640803      1.300052      0.285491
  C      -1.619756      0.543854     -0.224344
  C      -2.150630     -1.834552     -0.551376
  C       0.095979     -1.106861      0.439648
  H      -0.015870     -1.425438      1.485019
  H       0.524215     -1.968853     -0.067750
  C       1.092932      0.024536      0.361494
  C       2.492023     -0.390317      0.454092
  C      -2.942585      1.083269     -0.659628
  H      -3.041375      2.129495     -0.373288
  H      -3.047448      1.011949     -1.741346
  H      -3.760301      0.514246     -0.230149
  C      -1.724005     -3.249324     -0.251994
  H      -2.557668     -3.920988     -0.434587
  H      -0.893828     -3.537601     -0.898591
  H      -1.380908     -3.359864      0.775895
  C       3.646811      0.539681      0.173938
  H       3.447227      1.236456     -0.635747
  H       3.893560      1.116566      1.066869
  H       4.510855     -0.071257     -0.076840
  C       1.419002      2.578069      0.348051
  H       2.261965      2.517322      1.025050
  H       1.788791      2.857489     -0.639194
  H       0.775236      3.384809      0.696084








