%nprocshared=16
%mem=16GB
%chk=DDL-LR-9.chk
#p CAM-B3LYP TZVP em=gd3bj td(nstates=6,root=1) scrf=(Solvent=Water)

Title Card Required

0 1
  O       2.731446     -1.559025      0.805109
  O      -3.266936     -1.651616     -1.004444
  N      -0.696354      1.515190      0.032481
  H      -1.004710      2.474313     -0.030318
  C      -1.250647     -0.760918     -0.163145
  C       0.642372      1.317886      0.242356
  C      -1.623792      0.560097     -0.258912
  C      -2.158305     -1.842646     -0.505858
  C       0.108873     -1.092933      0.355795
  H       0.033753     -1.473973      1.386387
  H       0.531527     -1.938118     -0.190234
  C       1.099331      0.025917      0.336047
  C       2.485909     -0.393094      0.485694
  C      -2.959338      1.093494     -0.642863
  H      -3.025359      2.161913     -0.451497
  H      -3.157484      0.926836     -1.697558
  H      -3.753387      0.593636     -0.101298
  C      -1.712386     -3.256960     -0.251985
  H      -2.563792     -3.924326     -0.318211
  H      -0.984234     -3.566158     -0.999507
  H      -1.240390     -3.379780      0.717833
  C       3.648320      0.531317      0.220912
  H       3.458863      1.239628     -0.581003
  H       3.899446      1.094936      1.121511
  H       4.508248     -0.083327     -0.036219
  C       1.415987      2.590130      0.359633
  H       2.199924      2.520853      1.103926
  H       1.874287      2.869886     -0.588494
  H       0.758828      3.406843      0.653862








