%nprocshared=16
%mem=16GB
%oldchk=DDL-S2-cLR-6.chk
%chk=DDL-S2-cLR-gs-6.chk
#p CAM-B3LYP TZVP em=gd3bj scrf=(Solvent=Water,NonEquilibrium=Read) Geom=Check Guess=Read

Title Card Required

0 1






