%nprocshared=16
%mem=16GB
%chk=DDL-LR-14.chk
#p CAM-B3LYP TZVP em=gd3bj td(nstates=6,root=1) scrf=(Solvent=Water)

Title Card Required

0 1
  O       2.744080     -1.558299      0.749034
  O      -3.230656     -1.641882     -1.096703
  N      -0.708613      1.513486      0.113102
  H      -1.016805      2.471204      0.055253
  C      -1.248516     -0.758707     -0.153120
  C       0.641061      1.302995      0.278281
  C      -1.620382      0.546537     -0.230096
  C      -2.151921     -1.835866     -0.543762
  C       0.098154     -1.104499      0.425558
  H      -0.007590     -1.433582      1.468704
  H       0.525473     -1.963788     -0.088273
  C       1.094001      0.024796      0.357230
  C       2.491045     -0.390769      0.459368
  C      -2.945089      1.084984     -0.656635
  H      -3.038700      2.135350     -0.386148
  H      -3.065811      0.997733     -1.734698
  H      -3.759662      0.527107     -0.208380
  C      -1.722300     -3.250288     -0.252087
  H      -2.559188     -3.921853     -0.415316
  H      -0.908283     -3.542521     -0.915860
  H      -1.357325     -3.363233      0.766948
  C       3.647078      0.538279      0.181779
  H       3.449182      1.236989     -0.626618
  H       3.894563      1.112951      1.076002
  H       4.510429     -0.073281     -0.070063
  C       1.418371      2.580018      0.350038
  H       2.251852      2.517900      1.038412
  H       1.803165      2.859635     -0.631042
  H       0.772387      3.388601      0.689092








