%nprocshared=16
%mem=16GB
%chk=DDL-LR-3.chk
#p CAM-B3LYP TZVP em=gd3bj td(nstates=6,root=1) scrf=(Solvent=Water)

Title Card Required

0 1
  O       2.715575     -1.559560      0.872085
  O      -3.308554     -1.663421     -0.893041
  N      -0.681669      1.516588     -0.064329
  H      -0.990099      2.477570     -0.132922
  C      -1.252956     -0.764003     -0.175008
  C       0.644007      1.336248      0.199272
  C      -1.628573      0.576818     -0.293688
  C      -2.165818     -1.851346     -0.460419
  C       0.121507     -1.079611      0.273118
  H       0.083452     -1.521779      1.285478
  H       0.538262     -1.906484     -0.311627
  C       1.105714      0.026837      0.310730
  C       2.479159     -0.396044      0.517234
  C      -2.980882      1.103466     -0.628123
  H      -3.009860      2.187469     -0.531451
  H      -3.266394      0.843312     -1.643976
  H      -3.739304      0.677933      0.022077
  C      -1.697138     -3.269490     -0.251293
  H      -2.562068     -3.923208     -0.201051
  H      -1.082501     -3.592252     -1.092109
  H      -1.104024     -3.398899      0.649432
  C       3.649629      0.522999      0.267840
  H       3.470315      1.242718     -0.526158
  H       3.905107      1.073304      1.175953
  H       4.505499     -0.095317      0.004388
  C       1.414970      2.603122      0.370690
  H       2.134723      2.524644      1.179493
  H       1.957797      2.881163     -0.533514
  H       0.744123      3.427224      0.610919








