%nprocshared=16
%mem=16GB
%chk=DDL-LR-8.chk
#p CAM-B3LYP TZVP em=gd3bj td(nstates=6,root=1) scrf=(Solvent=Water)

Title Card Required

0 1
  O       2.728857     -1.559140      0.816280
  O      -3.274006     -1.653571     -0.985960
  N      -0.693907      1.515472      0.016374
  H      -1.002286      2.474890     -0.047396
  C      -1.251052     -0.761398     -0.165132
  C       0.642639      1.320904      0.235187
  C      -1.624535      0.562844     -0.264688
  C      -2.159567     -1.844051     -0.498298
  C       0.110991     -1.090670      0.341962
  H       0.042017     -1.481984      1.369757
  H       0.532690     -1.932913     -0.210509
  C       1.100394      0.026104      0.331829
  C       2.484831     -0.393573      0.490949
  C      -2.962573      1.095174     -0.640309
  H      -3.022723      2.166653     -0.464733
  H      -3.175739      0.912763     -1.689316
  H      -3.751518      0.607365     -0.080320
  C      -1.710103     -3.258694     -0.251885
  H      -2.564066     -3.924444     -0.298701
  H      -1.000118     -3.570680     -1.015577
  H      -1.217311     -3.383025      0.707129
  C       3.648551      0.529932      0.228726
  H       3.460781      1.240149     -0.571882
  H       3.900401      1.091339      1.130587
  H       4.507801     -0.085325     -0.029457
  C       1.415674      2.592228      0.361498
  H       2.189275      2.521462      1.116749
  H       1.888343      2.871841     -0.579629
  H       0.756259      3.410348      0.646762








