%nprocshared=16
%mem=16GB
%chk=DDL-LR-0.chk
#p CAM-B3LYP TZVP em=gd3bj td(nstates=6,root=1) scrf=(Solvent=Water)

Title Card Required

0 1
  O       2.707335     -1.559688      0.905597
  O      -3.328702     -1.669399     -0.836778
  N      -0.674316      1.517027     -0.112959
  H      -0.982718      2.479016     -0.184466
  C      -1.253986     -0.765742     -0.180897
  C       0.644853      1.345678      0.177607
  C      -1.631246      0.585419     -0.311191
  C      -2.169531     -1.855927     -0.437564
  C       0.127790     -1.073187      0.231954
  H       0.108455     -1.545463      1.233900
  H       0.541399     -1.890298     -0.372210
  C       1.108918      0.027111      0.298010
  C       2.475527     -0.397592      0.533021
  C      -2.993593      1.108380     -0.621000
  H      -3.002488      2.197746     -0.571638
  H      -3.320074      0.802622     -1.613696
  H      -3.729960      0.721503      0.081375
  C      -1.688219     -3.277637     -0.251050
  H      -2.558289     -3.921136     -0.142692
  H      -1.133713     -3.604387     -1.134824
  H      -1.038064     -3.408115      0.611936
  C       3.650219      0.518820      0.291370
  H       3.475998      1.244229     -0.498592
  H       3.907902      1.062410      1.203199
  H       4.504062     -0.101335      0.024742
  C       1.415248      2.609986      0.376188
  H       2.101030      2.526687      1.216020
  H       1.998767      2.886416     -0.504489
  H       0.737410      3.436855      0.589133








