%nprocshared=32
%mem=16GB
%oldchk=DDL-S2-opt-freq.chk
%chk=DDL-S2-TD-Eq.chk
#p CAM-B3LYP/TZVP em=gd3bj TD=(Eqsolv,NStates=6) IOp(9/40=4) SCRF=(Solvent=Water) Geom=Check Guess=Read NoSymm

Title Card Required

0 1






