%nprocshared=32
%mem=16GB
%oldchk=DDL-S2-opt-freq.chk
%chk=DDL-S2-intmodes.chk
#p opt freq=intmodes IOp(7/75=-1) td=(nstates=1,root=2) CAM-B3LYP/TZVP em=gd3bj SCRF=Solvent=Water Geom=Check Guess=Read

Title Card Required

0 1





