%nprocshared=16
%mem=16GB
%chk=h2o-s1-freq=intmodes.chk
#p freq=intmodes td=(root=1,nstates=6) cam-b3lyp tzvp geom=connectivity

Title Card Required

0 1
 O                 -2.11519667   -2.90502785    0.05538837
 O                 -1.00714467   -8.94682585   -0.96440863
 O                 -7.17346367   -8.12244685   -0.95467063
 O                 -0.19803167   -1.71012585    1.72415637
 O                  1.47084533  -10.05455785   -0.42943663
 H                 -7.81209467   -7.93656685   -1.64743563
 H                 -0.87290567   -2.06891385    1.12156837
 H                  1.27118233  -10.95917985   -0.17063063
 H                 -7.49416067   -8.90482485   -0.49677663
 H                 -0.17512567   -0.76766485    1.52371537
 H                  0.59701633   -9.71228685   -0.70908163
 N                 -4.58963667   -6.83547885   -0.52522063
 H                 -5.49049567   -7.29172785   -0.66710763
 C                 -2.23809967   -6.99208585   -0.55804163
 C                 -4.63744267   -5.49800985   -0.20298363
 C                 -3.50150067   -7.60430985   -0.70053063
 C                 -1.00388767   -7.73332285   -0.72403463
 C                 -2.17743167   -5.55200485   -0.29794363
 H                 -1.43556967   -5.32342185    0.47907037
 H                 -1.69004467   -5.02544585   -1.14464363
 C                 -3.42737467   -4.82165085   -0.03237763
 C                 -3.21204167   -3.42453085    0.30991037
 C                 -3.75248767   -9.02433885   -1.08961663
 H                 -4.82305067   -9.20593485   -1.17161063
 H                 -3.27878967   -9.25651885   -2.04303363
 H                 -3.31977867   -9.71762685   -0.37163163
 C                  0.31551233   -7.02028385   -0.58653363
 H                  1.07411733   -7.57953285   -1.12664663
 H                  0.29096433   -5.99751085   -0.94996563
 H                  0.61663733   -6.99854385    0.46295037
 C                 -4.21755967   -2.57009185    1.04221837
 H                 -5.18033167   -3.03065985    1.23096037
 H                 -3.76928867   -2.29096485    1.99809937
 H                 -4.35995567   -1.64456485    0.48705637
 C                 -6.00654667   -4.91243685   -0.14686563
 H                 -6.37305267   -4.78353185    0.87498337
 H                 -6.01555967   -3.93441485   -0.62403063
 H                 -6.72314567   -5.54980285   -0.66411063

 1 22 2.0
 2 17 2.0
 3 6 1.0 9 1.0
 4 7 1.0 10 1.0
 5 8 1.0 11 1.0
 6
 7
 8
 9
 10
 11
 12 13 1.0 15 1.5 16 1.5
 13
 14 16 1.5 17 1.0 18 1.0
 15 21 1.5 35 1.0
 16 23 1.0
 17 27 1.0
 18 19 1.0 20 1.0 21 1.0
 19
 20
 21 22 1.0
 22 31 1.0
 23 24 1.0 25 1.0 26 1.0
 24
 25
 26
 27 28 1.0 29 1.0 30 1.0
 28
 29
 30
 31 32 1.0 33 1.0 34 1.0
 32
 33
 34
 35 36 1.0 37 1.0 38 1.0
 36
 37
 38





