%nprocshared=16
%mem=16GB
%chk=h2o-s2-freq=intmodes.chk
#p freq=intmodes td=(root=2,nstates=6) cam-b3lyp tzvp geom=connectivity

Title Card Required

0 1
 O                 -0.39106145    0.92869133   -0.01215724
 O                  0.01072855   -4.61351267   -2.85337424
 O                 -6.02175845   -3.52754367   -2.22096824
 O                  2.05836755    2.15606033    0.53042276
 O                  2.31064655   -6.20343567   -2.92412024
 H                 -6.88031945   -3.38199467   -2.63389624
 H                  1.22078855    1.67811433    0.42533976
 H                  2.23302555   -6.95726267   -3.52465824
 H                 -6.13580045   -4.32052267   -1.68942224
 H                  1.86330555    3.03404733    0.18693276
 H                  1.37651355   -5.95165867   -2.83610624
 N                 -3.31636245   -2.25365067   -1.74218424
 H                 -4.25620145   -2.58530067   -1.91585924
 C                 -0.97873145   -2.65201367   -1.95519224
 C                 -3.17384045   -1.05880967   -1.10580524
 C                 -2.27585645   -3.07702667   -2.14175624
 C                  0.11915855   -3.43752367   -2.30311024
 C                 -0.70240845   -1.27700067   -1.40461924
 H                  0.01779255   -1.33285567   -0.59380724
 H                 -0.20834545   -0.65123667   -2.15422124
 C                 -1.92412945   -0.55275467   -0.89236824
 C                 -1.58045745    0.66526833   -0.18383124
 C                 -2.68628945   -4.39825367   -2.70216924
 H                 -3.77068045   -4.49596067   -2.70329824
 H                 -2.35161945   -4.53413167   -3.72925424
 H                 -2.27000345   -5.22469667   -2.12137224
 C                  1.56477455   -2.99119767   -2.23689624
 H                  2.21468555   -3.82827267   -1.98661824
 H                  1.88172155   -2.59911167   -3.20572424
 H                  1.66383855   -2.21187867   -1.48722024
 C                 -2.58802045    1.66507833    0.32771576
 H                 -3.22457245    2.02386533   -0.47771024
 H                 -3.22741645    1.25244933    1.10640476
 H                 -2.03136245    2.50224033    0.73668576
 C                 -4.48408745   -0.44852867   -0.69559724
 H                 -4.54899545   -0.33108567    0.38406576
 H                 -4.62674145    0.53239633   -1.14219924
 H                 -5.31079345   -1.08450067   -1.00761524

 1 22 2.0
 2 17 1.5
 3 6 1.0 9 1.0
 4 7 1.0 10 1.0
 5 8 1.0 11 1.0
 6
 7
 8
 9
 10
 11
 12 13 1.0 15 1.5 16 1.0
 13
 14 16 2.0 17 1.5 18 1.0
 15 21 2.0 35 1.0
 16 23 1.0
 17 27 1.0
 18 19 1.0 20 1.0 21 1.0
 19
 20
 21 22 1.0
 22 31 1.0
 23 24 1.0 25 1.0 26 1.0
 24
 25
 26
 27 28 1.0 29 1.0 30 1.0
 28
 29
 30
 31 32 1.0 33 1.0 34 1.0
 32
 33
 34
 35 36 1.0 37 1.0 38 1.0
 36
 37
 38





