%nprocshared=16
%mem=16GB
%chk=h2o-s0-freq=intmodes.chk
#p freq=intmodes cam-b3lyp tzvp geom=connectivity

Title Card Required

0 1
 O                 -1.63407819    2.53491613    0.00000000
 O                 -2.17804719    8.49959713   -1.77695300
 O                  3.81798981    7.27449113   -1.73394200
 O                 -3.67947419    0.80034513    1.09550500
 O                 -4.59353819    9.77272213   -1.94640400
 H                  4.57407881    7.44784413   -2.30320300
 H                 -2.98823519    1.40771913    0.78869700
 H                 -4.52148919   10.39622113   -2.67984300
 H                  3.79674881    7.99636013   -1.09869300
 H                 -3.50354519   -0.01288687    0.61341000
 H                 -3.67427919    9.43558113   -1.89856900
 N                  1.14878081    5.98360413   -1.45008200
 H                  2.07487281    6.33635313   -1.65357000
 C                 -1.16968219    6.40192713   -1.40886200
 C                  1.04456281    4.71606513   -0.92479800
 C                  0.08726481    6.84352813   -1.62697700
 C                 -2.31194819    7.29076313   -1.59994400
 C                 -1.42528419    4.96080313   -1.04191600
 H                 -2.13555719    4.89457213   -0.22069100
 H                 -1.92578019    4.42793513   -1.85610200
 C                 -0.17678919    4.20099813   -0.65421400
 C                 -0.46544619    2.89972413   -0.04873200
 C                  0.48586681    8.21463713   -2.07353200
 H                  1.53867181    8.22851413   -2.35035100
 H                 -0.11551919    8.54000313   -2.91721000
 H                  0.30269081    8.94933613   -1.29105900
 C                 -3.68001219    6.67128113   -1.60070600
 H                 -4.42983819    7.41195013   -1.86241500
 H                 -3.70955319    5.84002013   -2.30579800
 H                 -3.90816219    6.25749513   -0.61781800
 C                  0.58534981    1.98499913    0.53175300
 H                  1.09745081    1.44901313   -0.26704400
 H                  1.33643781    2.50863513    1.11625000
 H                  0.07905181    1.25630413    1.15932400
 C                  2.38425681    4.06036513   -0.75206100
 H                  2.63892981    3.93976213    0.29814200
 H                  2.40487581    3.08044113   -1.22039400
 H                  3.16268981    4.67057613   -1.20646700

 1 22 2.0
 2 17 2.0
 3 6 1.0 9 1.0
 4 7 1.0 10 1.0
 5 8 1.0 11 1.0
 6
 7
 8
 9
 10
 11
 12 13 1.0 15 1.5 16 1.5
 13
 14 16 2.0 17 1.0 18 1.0
 15 21 2.0 35 1.0
 16 23 1.0
 17 27 1.0
 18 19 1.0 20 1.0 21 1.0
 19
 20
 21 22 1.0
 22 31 1.0
 23 24 1.0 25 1.0 26 1.0
 24
 25
 26
 27 28 1.0 29 1.0 30 1.0
 28
 29
 30
 31 32 1.0 33 1.0 34 1.0
 32
 33
 34
 35 36 1.0 37 1.0 38 1.0
 36
 37
 38








