%nprocshared=32
%mem=32GB
%chk=monomer-H2O-S1-opt-freq.chk
#p opt freq oniom(td=(root=1,nstates=6)/cam-b3lyp/tzvp:uff) geom=connectivity

Title Card Required

0 1 0 1 0 1
 O-O_R            0    5.96000000   12.72600000    2.14100000 L
 O-O_R            0    4.39800000   12.72600000    8.92900000 L
 O-O_R            0    2.83700000   12.72600000   15.71600000 L
 O-O_R            0    5.96000000   27.62500000    2.14100000 L
 O-O_R            0    4.39800000   27.62500000    8.92900000 L
 O-O_R            0    2.83700000   27.62500000   15.71600000 L
 O-O_R            0   16.48000000   12.72600000    2.14100000 L
 O-O_R            0   14.91900000   12.72600000    8.92900000 L
 O-O_R            0   13.35700000   12.72600000   15.71600000 L
 O-O_R            0   16.48000000   27.62500000    2.14100000 L
 O-O_R            0   14.91900000   27.62500000    8.92900000 L
 O-O_R            0   13.35700000   27.62500000   15.71600000 L
 O-O_R            0   27.00000000   12.72600000    2.14100000 L
 O-O_R            0   25.43900000   12.72600000    8.92900000 L
 O-O_R            0   23.87800000   12.72600000   15.71600000 L
 O-O_R            0   27.00000000   27.62500000    2.14100000 L
 O-O_R            0   25.43900000   27.62500000    8.92900000 L
 O-O_R            0   23.87800000   27.62500000   15.71600000 L
 O-O_R            0    2.99900000    2.17400000    4.64600000 L
 O-O_R            0    1.43800000    2.17400000   11.43400000 L
 O-O_R            0   -0.12300000    2.17400000   18.22100000 L
 O-O_R            0    2.99900000   17.07300000    4.64600000 L
 O-O_R            0    1.43800000   17.07300000   11.43400000 L
 O-O_R            0   -0.12300000   17.07300000   18.22100000 L
 O-O_R            0    2.99900000   31.97300000    4.64600000 L
 O-O_R            0    1.43800000   31.97300000   11.43400000 L
 O-O_R            0   -0.12300000   31.97300000   18.22100000 L
 O-O_R            0   13.52000000    2.17400000    4.64600000 L
 O-O_R            0   11.95900000    2.17400000   11.43400000 L
 O-O_R            0   10.39700000    2.17400000   18.22100000 L
 O-O_R            0   13.52000000   17.07300000    4.64600000 L
 O-O_R            0   11.95900000   17.07300000   11.43400000 H
 O-O_R            0   10.39700000   17.07300000   18.22100000 L
 O-O_R            0   13.52000000   31.97300000    4.64600000 L
 O-O_R            0   11.95900000   31.97300000   11.43400000 L
 O-O_R            0   10.39700000   31.97300000   18.22100000 L
 O-O_R            0   24.04000000    2.17400000    4.64600000 L
 O-O_R            0   22.47900000    2.17400000   11.43400000 L
 O-O_R            0   20.91800000    2.17400000   18.22100000 L
 O-O_R            0   24.04000000   17.07300000    4.64600000 L
 O-O_R            0   22.47900000   17.07300000   11.43400000 L
 O-O_R            0   20.91800000   17.07300000   18.22100000 L
 O-O_R            0   24.04000000   31.97300000    4.64600000 L
 O-O_R            0   22.47900000   31.97300000   11.43400000 L
 O-O_R            0   20.91800000   31.97300000   18.22100000 L
 O-O_R            0    3.78000000    5.27600000    1.25300000 L
 O-O_R            0    2.21900000    5.27600000    8.04000000 L
 O-O_R            0    0.65800000    5.27600000   14.82800000 L
 O-O_R            0    3.78000000   20.17600000    1.25300000 L
 O-O_R            0    2.21900000   20.17600000    8.04000000 L
 O-O_R            0    0.65800000   20.17600000   14.82800000 L
 O-O_R            0    3.78000000   35.07500000    1.25300000 L
 O-O_R            0    2.21900000   35.07500000    8.04000000 L
 O-O_R            0    0.65800000   35.07500000   14.82800000 L
 O-O_R            0   14.30100000    5.27600000    1.25300000 L
 O-O_R            0   12.73900000    5.27600000    8.04000000 L
 O-O_R            0   11.17800000    5.27600000   14.82800000 L
 O-O_R            0   14.30100000   20.17600000    1.25300000 L
 O-O_R            0   12.73900000   20.17600000    8.04000000 L
 O-O_R            0   11.17800000   20.17600000   14.82800000 L
 O-O_R            0   14.30100000   35.07500000    1.25300000 L
 O-O_R            0   12.73900000   35.07500000    8.04000000 L
 O-O_R            0   11.17800000   35.07500000   14.82800000 L
 O-O_R            0   24.82100000    5.27600000    1.25300000 L
 O-O_R            0   23.26000000    5.27600000    8.04000000 L
 O-O_R            0   21.69800000    5.27600000   14.82800000 L
 O-O_R            0   24.82100000   20.17600000    1.25300000 L
 O-O_R            0   23.26000000   20.17600000    8.04000000 L
 O-O_R            0   21.69800000   20.17600000   14.82800000 L
 O-O_R            0   24.82100000   35.07500000    1.25300000 L
 O-O_R            0   23.26000000   35.07500000    8.04000000 L
 O-O_R            0   21.69800000   35.07500000   14.82800000 L
 O-O_R            0    5.17900000    9.62300000    5.53500000 L
 O-O_R            0    3.61800000    9.62300000   12.32300000 L
 O-O_R            0    2.05600000    9.62300000   19.11000000 L
 O-O_R            0    5.17900000   24.52300000    5.53500000 L
 O-O_R            0    3.61800000   24.52300000   12.32300000 L
 O-O_R            0    2.05600000   24.52300000   19.11000000 L
 O-O_R            0   15.69900000    9.62300000    5.53500000 L
 O-O_R            0   14.13800000    9.62300000   12.32300000 L
 O-O_R            0   12.57700000    9.62300000   19.11000000 L
 O-O_R            0   15.69900000   24.52300000    5.53500000 L
 O-O_R            0   14.13800000   24.52300000   12.32300000 L
 O-O_R            0   12.57700000   24.52300000   19.11000000 L
 O-O_R            0   26.22000000    9.62300000    5.53500000 L
 O-O_R            0   24.65900000    9.62300000   12.32300000 L
 O-O_R            0   23.09700000    9.62300000   19.11000000 L
 O-O_R            0   26.22000000   24.52300000    5.53500000 L
 O-O_R            0   24.65900000   24.52300000   12.32300000 L
 O-O_R            0   23.09700000   24.52300000   19.11000000 L
 O-O_R            0   -0.24200000   12.79700000    1.20400000 L
 O-O_R            0   -1.80300000   12.79700000    7.99200000 L
 O-O_R            0   -3.36400000   12.79700000   14.77900000 L
 O-O_R            0   -0.24200000   27.69700000    1.20400000 L
 O-O_R            0   -1.80300000   27.69700000    7.99200000 L
 O-O_R            0   -3.36400000   27.69700000   14.77900000 L
 O-O_R            0   10.27900000   12.79700000    1.20400000 L
 O-O_R            0    8.71800000   12.79700000    7.99200000 L
 O-O_R            0    7.15600000   12.79700000   14.77900000 L
 O-O_R            0   10.27900000   27.69700000    1.20400000 L
 O-O_R            0    8.71800000   27.69700000    7.99200000 L
 O-O_R            0    7.15600000   27.69700000   14.77900000 L
 O-O_R            0   20.79900000   12.79700000    1.20400000 L
 O-O_R            0   19.23800000   12.79700000    7.99200000 L
 O-O_R            0   17.67700000   12.79700000   14.77900000 L
 O-O_R            0   20.79900000   27.69700000    1.20400000 L
 O-O_R            0   19.23800000   27.69700000    7.99200000 L
 O-O_R            0   17.67700000   27.69700000   14.77900000 L
 O-O_R            0    9.20100000    2.10200000    5.58400000 L
 O-O_R            0    7.63900000    2.10200000   12.37100000 L
 O-O_R            0    6.07800000    2.10200000   19.15900000 L
 O-O_R            0    9.20100000   17.00200000    5.58400000 L
 O-O_R            0    7.63900000   17.00200000   12.37100000 L
 O-O_R            0    6.07800000   17.00200000   19.15900000 L
 O-O_R            0    9.20100000   31.90100000    5.58400000 L
 O-O_R            0    7.63900000   31.90100000   12.37100000 L
 O-O_R            0    6.07800000   31.90100000   19.15900000 L
 O-O_R            0   19.72100000    2.10200000    5.58400000 L
 O-O_R            0   18.16000000    2.10200000   12.37100000 L
 O-O_R            0   16.59900000    2.10200000   19.15900000 L
 O-O_R            0   19.72100000   17.00200000    5.58400000 L
 O-O_R            0   18.16000000   17.00200000   12.37100000 H
 O-O_R            0   16.59900000   17.00200000   19.15900000 L
 O-O_R            0   19.72100000   31.90100000    5.58400000 L
 O-O_R            0   18.16000000   31.90100000   12.37100000 L
 O-O_R            0   16.59900000   31.90100000   19.15900000 L
 O-O_R            0   30.24200000    2.10200000    5.58400000 L
 O-O_R            0   28.68000000    2.10200000   12.37100000 L
 O-O_R            0   27.11900000    2.10200000   19.15900000 L
 O-O_R            0   30.24200000   17.00200000    5.58400000 L
 O-O_R            0   28.68000000   17.00200000   12.37100000 L
 O-O_R            0   27.11900000   17.00200000   19.15900000 L
 O-O_R            0   30.24200000   31.90100000    5.58400000 L
 O-O_R            0   28.68000000   31.90100000   12.37100000 L
 O-O_R            0   27.11900000   31.90100000   19.15900000 L
 O-O_R            0    9.98100000    5.34800000    2.19000000 L
 O-O_R            0    8.42000000    5.34800000    8.97700000 L
 O-O_R            0    6.85900000    5.34800000   15.76500000 L
 O-O_R            0    9.98100000   20.24700000    2.19000000 L
 O-O_R            0    8.42000000   20.24700000    8.97700000 L
 O-O_R            0    6.85900000   20.24700000   15.76500000 L
 O-O_R            0    9.98100000   35.14700000    2.19000000 L
 O-O_R            0    8.42000000   35.14700000    8.97700000 L
 O-O_R            0    6.85900000   35.14700000   15.76500000 L
 O-O_R            0   20.50200000    5.34800000    2.19000000 L
 O-O_R            0   18.94000000    5.34800000    8.97700000 L
 O-O_R            0   17.37900000    5.34800000   15.76500000 L
 O-O_R            0   20.50200000   20.24700000    2.19000000 L
 O-O_R            0   18.94000000   20.24700000    8.97700000 L
 O-O_R            0   17.37900000   20.24700000   15.76500000 L
 O-O_R            0   20.50200000   35.14700000    2.19000000 L
 O-O_R            0   18.94000000   35.14700000    8.97700000 L
 O-O_R            0   17.37900000   35.14700000   15.76500000 L
 O-O_R            0   31.02200000    5.34800000    2.19000000 L
 O-O_R            0   29.46100000    5.34800000    8.97700000 L
 O-O_R            0   27.90000000    5.34800000   15.76500000 L
 O-O_R            0   31.02200000   20.24700000    2.19000000 L
 O-O_R            0   29.46100000   20.24700000    8.97700000 L
 O-O_R            0   27.90000000   20.24700000   15.76500000 L
 O-O_R            0   31.02200000   35.14700000    2.19000000 L
 O-O_R            0   29.46100000   35.14700000    8.97700000 L
 O-O_R            0   27.90000000   35.14700000   15.76500000 L
 O-O_R            0   -1.02200000    9.55200000    4.59800000 L
 O-O_R            0   -2.58400000    9.55200000   11.38500000 L
 O-O_R            0   -4.14500000    9.55200000   18.17300000 L
 O-O_R            0   -1.02200000   24.45100000    4.59800000 L
 O-O_R            0   -2.58400000   24.45100000   11.38500000 L
 O-O_R            0   -4.14500000   24.45100000   18.17300000 L
 O-O_R            0    9.49800000    9.55200000    4.59800000 L
 O-O_R            0    7.93700000    9.55200000   11.38500000 L
 O-O_R            0    6.37600000    9.55200000   18.17300000 L
 O-O_R            0    9.49800000   24.45100000    4.59800000 L
 O-O_R            0    7.93700000   24.45100000   11.38500000 L
 O-O_R            0    6.37600000   24.45100000   18.17300000 L
 O-O_R            0   20.01900000    9.55200000    4.59800000 L
 O-O_R            0   18.45700000    9.55200000   11.38500000 L
 O-O_R            0   16.89600000    9.55200000   18.17300000 L
 O-O_R            0   20.01900000   24.45100000    4.59800000 L
 O-O_R            0   18.45700000   24.45100000   11.38500000 L
 O-O_R            0   16.89600000   24.45100000   18.17300000 L
 O-O_3--0.834000  0    1.62200000    6.92400000    1.50100000 L
 O-O_3--0.834000  0    0.06000000    6.92400000    8.28800000 L
 O-O_3--0.834000  0   -1.50100000    6.92400000   15.07600000 L
 O-O_3--0.834000  0    1.62200000   21.82400000    1.50100000 L
 O-O_3--0.834000  0    0.06000000   21.82400000    8.28800000 L
 O-O_3--0.834000  0   -1.50100000   21.82400000   15.07600000 L
 O-O_3--0.834000  0    1.62200000   36.72300000    1.50100000 L
 O-O_3--0.834000  0    0.06000000   36.72300000    8.28800000 L
 O-O_3--0.834000  0   -1.50100000   36.72300000   15.07600000 L
 O-O_3--0.834000  0   12.14200000    6.92400000    1.50100000 L
 O-O_3--0.834000  0   10.58100000    6.92400000    8.28800000 L
 O-O_3--0.834000  0    9.01900000    6.92400000   15.07600000 L
 O-O_3--0.834000  0   12.14200000   21.82400000    1.50100000 L
 O-O_3--0.834000  0   10.58100000   21.82400000    8.28800000 L
 O-O_3--0.834000  0    9.01900000   21.82400000   15.07600000 L
 O-O_3--0.834000  0   12.14200000   36.72300000    1.50100000 L
 O-O_3--0.834000  0   10.58100000   36.72300000    8.28800000 L
 O-O_3--0.834000  0    9.01900000   36.72300000   15.07600000 L
 O-O_3--0.834000  0   22.66200000    6.92400000    1.50100000 L
 O-O_3--0.834000  0   21.10100000    6.92400000    8.28800000 L
 O-O_3--0.834000  0   19.54000000    6.92400000   15.07600000 L
 O-O_3--0.834000  0   22.66200000   21.82400000    1.50100000 L
 O-O_3--0.834000  0   21.10100000   21.82400000    8.28800000 L
 O-O_3--0.834000  0   19.54000000   21.82400000   15.07600000 L
 O-O_3--0.834000  0   22.66200000   36.72300000    1.50100000 L
 O-O_3--0.834000  0   21.10100000   36.72300000    8.28800000 L
 O-O_3--0.834000  0   19.54000000   36.72300000   15.07600000 L
 O-O_3--0.834000  0    7.33800000    7.97500000    5.28700000 L
 O-O_3--0.834000  0    5.77600000    7.97500000   12.07400000 L
 O-O_3--0.834000  0    4.21500000    7.97500000   18.86200000 L
 O-O_3--0.834000  0    7.33800000   22.87500000    5.28700000 L
 O-O_3--0.834000  0    5.77600000   22.87500000   12.07400000 L
 O-O_3--0.834000  0    4.21500000   22.87500000   18.86200000 L
 O-O_3--0.834000  0    7.33800000   37.77400000    5.28700000 L
 O-O_3--0.834000  0    5.77600000   37.77400000   12.07400000 L
 O-O_3--0.834000  0    4.21500000   37.77400000   18.86200000 L
 O-O_3--0.834000  0   17.85800000    7.97500000    5.28700000 L
 O-O_3--0.834000  0   16.29700000    7.97500000   12.07400000 L
 O-O_3--0.834000  0   14.73500000    7.97500000   18.86200000 L
 O-O_3--0.834000  0   17.85800000   22.87500000    5.28700000 L
 O-O_3--0.834000  0   16.29700000   22.87500000   12.07400000 H
 O-O_3--0.834000  0   14.73500000   22.87500000   18.86200000 L
 O-O_3--0.834000  0   17.85800000   37.77400000    5.28700000 L
 O-O_3--0.834000  0   16.29700000   37.77400000   12.07400000 L
 O-O_3--0.834000  0   14.73500000   37.77400000   18.86200000 L
 O-O_3--0.834000  0   28.37800000    7.97500000    5.28700000 L
 O-O_3--0.834000  0   26.81700000    7.97500000   12.07400000 L
 O-O_3--0.834000  0   25.25600000    7.97500000   18.86200000 L
 O-O_3--0.834000  0   28.37800000   22.87500000    5.28700000 L
 O-O_3--0.834000  0   26.81700000   22.87500000   12.07400000 L
 O-O_3--0.834000  0   25.25600000   22.87500000   18.86200000 L
 O-O_3--0.834000  0   28.37800000   37.77400000    5.28700000 L
 O-O_3--0.834000  0   26.81700000   37.77400000   12.07400000 L
 O-O_3--0.834000  0   25.25600000   37.77400000   18.86200000 L
 O-O_3--0.834000  0    8.11800000   14.37400000    1.89300000 L
 O-O_3--0.834000  0    6.55700000   14.37400000    8.68100000 L
 O-O_3--0.834000  0    4.99600000   14.37400000   15.46800000 L
 O-O_3--0.834000  0    8.11800000   29.27300000    1.89300000 L
 O-O_3--0.834000  0    6.55700000   29.27300000    8.68100000 L
 O-O_3--0.834000  0    4.99600000   29.27300000   15.46800000 L
 O-O_3--0.834000  0   18.63900000   14.37400000    1.89300000 L
 O-O_3--0.834000  0   17.07700000   14.37400000    8.68100000 L
 O-O_3--0.834000  0   15.51600000   14.37400000   15.46800000 L
 O-O_3--0.834000  0   18.63900000   29.27300000    1.89300000 L
 O-O_3--0.834000  0   17.07700000   29.27300000    8.68100000 L
 O-O_3--0.834000  0   15.51600000   29.27300000   15.46800000 L
 O-O_3--0.834000  0   29.15900000   14.37400000    1.89300000 L
 O-O_3--0.834000  0   27.59800000   14.37400000    8.68100000 L
 O-O_3--0.834000  0   26.03600000   14.37400000   15.46800000 L
 O-O_3--0.834000  0   29.15900000   29.27300000    1.89300000 L
 O-O_3--0.834000  0   27.59800000   29.27300000    8.68100000 L
 O-O_3--0.834000  0   26.03600000   29.27300000   15.46800000 L
 O-O_3--0.834000  0    0.84100000    0.52600000    4.89500000 L
 O-O_3--0.834000  0   -0.72000000    0.52600000   11.68200000 L
 O-O_3--0.834000  0   -2.28200000    0.52600000   18.47000000 L
 O-O_3--0.834000  0    0.84100000   15.42500000    4.89500000 L
 O-O_3--0.834000  0   -0.72000000   15.42500000   11.68200000 L
 O-O_3--0.834000  0   -2.28200000   15.42500000   18.47000000 L
 O-O_3--0.834000  0    0.84100000   30.32500000    4.89500000 L
 O-O_3--0.834000  0   -0.72000000   30.32500000   11.68200000 L
 O-O_3--0.834000  0   -2.28200000   30.32500000   18.47000000 L
 O-O_3--0.834000  0   11.36100000    0.52600000    4.89500000 L
 O-O_3--0.834000  0    9.80000000    0.52600000   11.68200000 L
 O-O_3--0.834000  0    8.23900000    0.52600000   18.47000000 L
 O-O_3--0.834000  0   11.36100000   15.42500000    4.89500000 L
 O-O_3--0.834000  0    9.80000000   15.42500000   11.68200000 H
 O-O_3--0.834000  0    8.23900000   15.42500000   18.47000000 L
 O-O_3--0.834000  0   11.36100000   30.32500000    4.89500000 L
 O-O_3--0.834000  0    9.80000000   30.32500000   11.68200000 L
 O-O_3--0.834000  0    8.23900000   30.32500000   18.47000000 L
 O-O_3--0.834000  0   21.88200000    0.52600000    4.89500000 L
 O-O_3--0.834000  0   20.32000000    0.52600000   11.68200000 L
 O-O_3--0.834000  0   18.75900000    0.52600000   18.47000000 L
 O-O_3--0.834000  0   21.88200000   15.42500000    4.89500000 L
 O-O_3--0.834000  0   20.32000000   15.42500000   11.68200000 H
 O-O_3--0.834000  0   18.75900000   15.42500000   18.47000000 L
 O-O_3--0.834000  0   21.88200000   30.32500000    4.89500000 L
 O-O_3--0.834000  0   20.32000000   30.32500000   11.68200000 L
 O-O_3--0.834000  0   18.75900000   30.32500000   18.47000000 L
 H-H_-0.417000    0    2.20000000    6.31500000    1.37500000 L
 H-H_-0.417000    0    0.63900000    6.31500000    8.16200000 L
 H-H_-0.417000    0   -0.92200000    6.31500000   14.95000000 L
 H-H_-0.417000    0    2.20000000   21.21500000    1.37500000 L
 H-H_-0.417000    0    0.63900000   21.21500000    8.16200000 L
 H-H_-0.417000    0   -0.92200000   21.21500000   14.95000000 L
 H-H_-0.417000    0    2.20000000   36.11400000    1.37500000 L
 H-H_-0.417000    0    0.63900000   36.11400000    8.16200000 L
 H-H_-0.417000    0   -0.92200000   36.11400000   14.95000000 L
 H-H_-0.417000    0   12.72100000    6.31500000    1.37500000 L
 H-H_-0.417000    0   11.15900000    6.31500000    8.16200000 L
 H-H_-0.417000    0    9.59800000    6.31500000   14.95000000 L
 H-H_-0.417000    0   12.72100000   21.21500000    1.37500000 L
 H-H_-0.417000    0   11.15900000   21.21500000    8.16200000 L
 H-H_-0.417000    0    9.59800000   21.21500000   14.95000000 L
 H-H_-0.417000    0   12.72100000   36.11400000    1.37500000 L
 H-H_-0.417000    0   11.15900000   36.11400000    8.16200000 L
 H-H_-0.417000    0    9.59800000   36.11400000   14.95000000 L
 H-H_-0.417000    0   23.24100000    6.31500000    1.37500000 L
 H-H_-0.417000    0   21.68000000    6.31500000    8.16200000 L
 H-H_-0.417000    0   20.11900000    6.31500000   14.95000000 L
 H-H_-0.417000    0   23.24100000   21.21500000    1.37500000 L
 H-H_-0.417000    0   21.68000000   21.21500000    8.16200000 L
 H-H_-0.417000    0   20.11900000   21.21500000   14.95000000 L
 H-H_-0.417000    0   23.24100000   36.11400000    1.37500000 L
 H-H_-0.417000    0   21.68000000   36.11400000    8.16200000 L
 H-H_-0.417000    0   20.11900000   36.11400000   14.95000000 L
 H-H_-0.417000    0    6.75900000    8.58400000    5.41300000 L
 H-H_-0.417000    0    5.19700000    8.58400000   12.20000000 L
 H-H_-0.417000    0    3.63600000    8.58400000   18.98800000 L
 H-H_-0.417000    0    6.75900000   23.48400000    5.41300000 L
 H-H_-0.417000    0    5.19700000   23.48400000   12.20000000 L
 H-H_-0.417000    0    3.63600000   23.48400000   18.98800000 L
 H-H_-0.417000    0    6.75900000   38.38300000    5.41300000 L
 H-H_-0.417000    0    5.19700000   38.38300000   12.20000000 L
 H-H_-0.417000    0    3.63600000   38.38300000   18.98800000 L
 H-H_-0.417000    0   17.27900000    8.58400000    5.41300000 L
 H-H_-0.417000    0   15.71800000    8.58400000   12.20000000 L
 H-H_-0.417000    0   14.15700000    8.58400000   18.98800000 L
 H-H_-0.417000    0   17.27900000   23.48400000    5.41300000 L
 H-H_-0.417000    0   15.71800000   23.48400000   12.20000000 H
 H-H_-0.417000    0   14.15700000   23.48400000   18.98800000 L
 H-H_-0.417000    0   17.27900000   38.38300000    5.41300000 L
 H-H_-0.417000    0   15.71800000   38.38300000   12.20000000 L
 H-H_-0.417000    0   14.15700000   38.38300000   18.98800000 L
 H-H_-0.417000    0   27.80000000    8.58400000    5.41300000 L
 H-H_-0.417000    0   26.23800000    8.58400000   12.20000000 L
 H-H_-0.417000    0   24.67700000    8.58400000   18.98800000 L
 H-H_-0.417000    0   27.80000000   23.48400000    5.41300000 L
 H-H_-0.417000    0   26.23800000   23.48400000   12.20000000 L
 H-H_-0.417000    0   24.67700000   23.48400000   18.98800000 L
 H-H_-0.417000    0   27.80000000   38.38300000    5.41300000 L
 H-H_-0.417000    0   26.23800000   38.38300000   12.20000000 L
 H-H_-0.417000    0   24.67700000   38.38300000   18.98800000 L
 H-H_-0.417000    0    7.53900000   13.76500000    2.01900000 L
 H-H_-0.417000    0    5.97800000   13.76500000    8.80600000 L
 H-H_-0.417000    0    4.41700000   13.76500000   15.59400000 L
 H-H_-0.417000    0    7.53900000   28.66400000    2.01900000 L
 H-H_-0.417000    0    5.97800000   28.66400000    8.80600000 L
 H-H_-0.417000    0    4.41700000   28.66400000   15.59400000 L
 H-H_-0.417000    0   18.06000000   13.76500000    2.01900000 L
 H-H_-0.417000    0   16.49900000   13.76500000    8.80600000 L
 H-H_-0.417000    0   14.93700000   13.76500000   15.59400000 L
 H-H_-0.417000    0   18.06000000   28.66400000    2.01900000 L
 H-H_-0.417000    0   16.49900000   28.66400000    8.80600000 L
 H-H_-0.417000    0   14.93700000   28.66400000   15.59400000 L
 H-H_-0.417000    0   28.58000000   13.76500000    2.01900000 L
 H-H_-0.417000    0   27.01900000   13.76500000    8.80600000 L
 H-H_-0.417000    0   25.45800000   13.76500000   15.59400000 L
 H-H_-0.417000    0   28.58000000   28.66400000    2.01900000 L
 H-H_-0.417000    0   27.01900000   28.66400000    8.80600000 L
 H-H_-0.417000    0   25.45800000   28.66400000   15.59400000 L
 H-H_-0.417000    0    1.42000000    1.13500000    4.76900000 L
 H-H_-0.417000    0   -0.14200000    1.13500000   11.55600000 L
 H-H_-0.417000    0   -1.70300000    1.13500000   18.34400000 L
 H-H_-0.417000    0    1.42000000   16.03400000    4.76900000 L
 H-H_-0.417000    0   -0.14200000   16.03400000   11.55600000 L
 H-H_-0.417000    0   -1.70300000   16.03400000   18.34400000 L
 H-H_-0.417000    0    1.42000000   30.93400000    4.76900000 L
 H-H_-0.417000    0   -0.14200000   30.93400000   11.55600000 L
 H-H_-0.417000    0   -1.70300000   30.93400000   18.34400000 L
 H-H_-0.417000    0   11.94000000    1.13500000    4.76900000 L
 H-H_-0.417000    0   10.37900000    1.13500000   11.55600000 L
 H-H_-0.417000    0    8.81800000    1.13500000   18.34400000 L
 H-H_-0.417000    0   11.94000000   16.03400000    4.76900000 L
 H-H_-0.417000    0   10.37900000   16.03400000   11.55600000 H
 H-H_-0.417000    0    8.81800000   16.03400000   18.34400000 L
 H-H_-0.417000    0   11.94000000   30.93400000    4.76900000 L
 H-H_-0.417000    0   10.37900000   30.93400000   11.55600000 L
 H-H_-0.417000    0    8.81800000   30.93400000   18.34400000 L
 H-H_-0.417000    0   22.46000000    1.13500000    4.76900000 L
 H-H_-0.417000    0   20.89900000    1.13500000   11.55600000 L
 H-H_-0.417000    0   19.33800000    1.13500000   18.34400000 L
 H-H_-0.417000    0   22.46000000   16.03400000    4.76900000 L
 H-H_-0.417000    0   20.89900000   16.03400000   11.55600000 H
 H-H_-0.417000    0   19.33800000   16.03400000   18.34400000 L
 H-H_-0.417000    0   22.46000000   30.93400000    4.76900000 L
 H-H_-0.417000    0   20.89900000   30.93400000   11.55600000 L
 H-H_-0.417000    0   19.33800000   30.93400000   18.34400000 L
 H-H_-0.417000    0    0.91700000    6.50600000    1.72600000 L
 H-H_-0.417000    0   -0.64500000    6.50600000    8.51300000 L
 H-H_-0.417000    0   -2.20600000    6.50600000   15.30100000 L
 H-H_-0.417000    0    0.91700000   21.40600000    1.72600000 L
 H-H_-0.417000    0   -0.64500000   21.40600000    8.51300000 L
 H-H_-0.417000    0   -2.20600000   21.40600000   15.30100000 L
 H-H_-0.417000    0    0.91700000   36.30500000    1.72600000 L
 H-H_-0.417000    0   -0.64500000   36.30500000    8.51300000 L
 H-H_-0.417000    0   -2.20600000   36.30500000   15.30100000 L
 H-H_-0.417000    0   11.43700000    6.50600000    1.72600000 L
 H-H_-0.417000    0    9.87600000    6.50600000    8.51300000 L
 H-H_-0.417000    0    8.31400000    6.50600000   15.30100000 L
 H-H_-0.417000    0   11.43700000   21.40600000    1.72600000 L
 H-H_-0.417000    0    9.87600000   21.40600000    8.51300000 L
 H-H_-0.417000    0    8.31400000   21.40600000   15.30100000 L
 H-H_-0.417000    0   11.43700000   36.30500000    1.72600000 L
 H-H_-0.417000    0    9.87600000   36.30500000    8.51300000 L
 H-H_-0.417000    0    8.31400000   36.30500000   15.30100000 L
 H-H_-0.417000    0   21.95700000    6.50600000    1.72600000 L
 H-H_-0.417000    0   20.39600000    6.50600000    8.51300000 L
 H-H_-0.417000    0   18.83500000    6.50600000   15.30100000 L
 H-H_-0.417000    0   21.95700000   21.40600000    1.72600000 L
 H-H_-0.417000    0   20.39600000   21.40600000    8.51300000 L
 H-H_-0.417000    0   18.83500000   21.40600000   15.30100000 L
 H-H_-0.417000    0   21.95700000   36.30500000    1.72600000 L
 H-H_-0.417000    0   20.39600000   36.30500000    8.51300000 L
 H-H_-0.417000    0   18.83500000   36.30500000   15.30100000 L
 H-H_-0.417000    0    8.04300000    8.39300000    5.06200000 L
 H-H_-0.417000    0    6.48100000    8.39300000   11.85000000 L
 H-H_-0.417000    0    4.92000000    8.39300000   18.63700000 L
 H-H_-0.417000    0    8.04300000   23.29300000    5.06200000 L
 H-H_-0.417000    0    6.48100000   23.29300000   11.85000000 L
 H-H_-0.417000    0    4.92000000   23.29300000   18.63700000 L
 H-H_-0.417000    0    8.04300000   38.19200000    5.06200000 L
 H-H_-0.417000    0    6.48100000   38.19200000   11.85000000 L
 H-H_-0.417000    0    4.92000000   38.19200000   18.63700000 L
 H-H_-0.417000    0   18.56300000    8.39300000    5.06200000 L
 H-H_-0.417000    0   17.00200000    8.39300000   11.85000000 L
 H-H_-0.417000    0   15.44000000    8.39300000   18.63700000 L
 H-H_-0.417000    0   18.56300000   23.29300000    5.06200000 L
 H-H_-0.417000    0   17.00200000   23.29300000   11.85000000 H
 H-H_-0.417000    0   15.44000000   23.29300000   18.63700000 L
 H-H_-0.417000    0   18.56300000   38.19200000    5.06200000 L
 H-H_-0.417000    0   17.00200000   38.19200000   11.85000000 L
 H-H_-0.417000    0   15.44000000   38.19200000   18.63700000 L
 H-H_-0.417000    0   29.08300000    8.39300000    5.06200000 L
 H-H_-0.417000    0   27.52200000    8.39300000   11.85000000 L
 H-H_-0.417000    0   25.96100000    8.39300000   18.63700000 L
 H-H_-0.417000    0   29.08300000   23.29300000    5.06200000 L
 H-H_-0.417000    0   27.52200000   23.29300000   11.85000000 L
 H-H_-0.417000    0   25.96100000   23.29300000   18.63700000 L
 H-H_-0.417000    0   29.08300000   38.19200000    5.06200000 L
 H-H_-0.417000    0   27.52200000   38.19200000   11.85000000 L
 H-H_-0.417000    0   25.96100000   38.19200000   18.63700000 L
 H-H_-0.417000    0    8.82300000   13.95600000    1.66800000 L
 H-H_-0.417000    0    7.26200000   13.95600000    8.45600000 L
 H-H_-0.417000    0    5.70100000   13.95600000   15.24300000 L
 H-H_-0.417000    0    8.82300000   28.85500000    1.66800000 L
 H-H_-0.417000    0    7.26200000   28.85500000    8.45600000 L
 H-H_-0.417000    0    5.70100000   28.85500000   15.24300000 L
 H-H_-0.417000    0   19.34400000   13.95600000    1.66800000 L
 H-H_-0.417000    0   17.78200000   13.95600000    8.45600000 L
 H-H_-0.417000    0   16.22100000   13.95600000   15.24300000 L
 H-H_-0.417000    0   19.34400000   28.85500000    1.66800000 L
 H-H_-0.417000    0   17.78200000   28.85500000    8.45600000 L
 H-H_-0.417000    0   16.22100000   28.85500000   15.24300000 L
 H-H_-0.417000    0   29.86400000   13.95600000    1.66800000 L
 H-H_-0.417000    0   28.30300000   13.95600000    8.45600000 L
 H-H_-0.417000    0   26.74100000   13.95600000   15.24300000 L
 H-H_-0.417000    0   29.86400000   28.85500000    1.66800000 L
 H-H_-0.417000    0   28.30300000   28.85500000    8.45600000 L
 H-H_-0.417000    0   26.74100000   28.85500000   15.24300000 L
 H-H_-0.417000    0    0.13600000    0.94400000    5.11900000 L
 H-H_-0.417000    0   -1.42500000    0.94400000   11.90700000 L
 H-H_-0.417000    0   -2.98700000    0.94400000   18.69400000 L
 H-H_-0.417000    0    0.13600000   15.84300000    5.11900000 L
 H-H_-0.417000    0   -1.42500000   15.84300000   11.90700000 L
 H-H_-0.417000    0   -2.98700000   15.84300000   18.69400000 L
 H-H_-0.417000    0    0.13600000   30.74300000    5.11900000 L
 H-H_-0.417000    0   -1.42500000   30.74300000   11.90700000 L
 H-H_-0.417000    0   -2.98700000   30.74300000   18.69400000 L
 H-H_-0.417000    0   10.65600000    0.94400000    5.11900000 L
 H-H_-0.417000    0    9.09500000    0.94400000   11.90700000 L
 H-H_-0.417000    0    7.53400000    0.94400000   18.69400000 L
 H-H_-0.417000    0   10.65600000   15.84300000    5.11900000 L
 H-H_-0.417000    0    9.09500000   15.84300000   11.90700000 H
 H-H_-0.417000    0    7.53400000   15.84300000   18.69400000 L
 H-H_-0.417000    0   10.65600000   30.74300000    5.11900000 L