%nprocshared=32
%mem=32GB
%chk=monomer-H2O-S0-TD.chk
#p td=Nstates=6 oniom(cam-b3lyp/tzvp:uff) geom=connectivity

Title Card Required

0 1 0 1 0 1
 O-O_R            0    7.26188800    7.50568200    9.25904500 L
 O-O_R            0    5.24085200   10.07928000    2.24740900 L
 O-O_R            0    4.63344100   11.78544500   -4.40375000 L
 O-O_R            0   -8.24951600    6.88075800    9.88470400 L
 O-O_R            0   -7.21551700    7.91995700    3.35531200 L
 O-O_R            0   -9.71342100    9.49677100   -3.83683900 L
 O-O_R            0    7.77709300   -2.41037800   10.49283300 L
 O-O_R            0    6.50696100   -1.12833800    3.66567100 L
 O-O_R            0    5.51690800    1.62746800   -4.72028800 L
 O-O_R            0   -8.65744700   -3.03410000    9.04194500 L
 O-O_R            0   -8.16756500   -3.16015100    2.27114500 L
 O-O_R            0   -6.02423900   -0.88231700   -4.82856900 L
 O-O_R            0    7.60349100  -11.49824100    7.78005400 L
 O-O_R            0    7.43835600  -11.92275700   -0.52468400 L
 O-O_R            0    7.06007600  -10.38178900   -6.59906200 L
 O-O_R            0   -2.96759900  -12.74323800    7.89197200 L
 O-O_R            0   -6.86078900  -12.62287700    0.72919100 L
 O-O_R            0   -6.64672600  -10.68501800   -6.59273600 L
 O-O_R            0   13.68211400   13.89482600    5.38396500 L
 O-O_R            0   13.64283500   14.12957200   -2.42741300 L
 O-O_R            0   10.16865800   14.48100900   -8.08004500 L
 O-O_R            0    0.61443800   10.44550300    7.12224300 L
 O-O_R            0   -0.01982000   12.58090400   -0.90659000 L
 O-O_R            0   -1.81210600   13.84039100   -7.23228800 L
 O-O_R            0  -14.25160200    8.08047000    8.46052500 L
 O-O_R            0  -13.88833600   11.16370700    1.74500500 L
 O-O_R            0  -15.27334800   13.30425800   -6.78977000 L
 O-O_R            0   15.73800700    2.25806400    6.12035800 L
 O-O_R            0   17.25557400    3.33387900   -0.53901100 L
 O-O_R            0   15.71545000    4.66004800   -9.21236900 L
 O-O_R            0    3.69835000    0.23428600    5.20316300 L
 O-O_R            0    0.73946800    2.11936600   -0.64781800 H
 O-O_R            0   -0.30596500    3.71346500   -7.98837900 L
 O-O_R            0  -13.14385200   -3.30560300    7.51856900 L
 O-O_R            0  -14.89215000    1.01683900    1.97826400 L
 O-O_R            0  -16.57791800    3.61476400   -6.43065900 L
 O-O_R            0   16.42342100  -11.17551500    3.89452000 L
 O-O_R            0   15.68194100   -7.48376500   -2.89475900 L
 O-O_R            0   13.57556600   -3.84967800   -9.09707600 L
 O-O_R            0    2.51101700   -9.89110500    3.90007800 L
 O-O_R            0    2.48795200  -10.71034600   -2.53077300 L
 O-O_R            0    1.63652000   -7.20966300   -8.52158900 L
 O-O_R            0  -11.15948800  -12.01416100    3.61889200 L
 O-O_R            0  -11.33054600   -8.28386500   -2.38592200 L
 O-O_R            0  -11.50079200   -6.98243300   -9.93018200 L
 O-O_R            0   13.54189100   10.03190500   10.97488700 L
 O-O_R            0   12.09422500   13.23843200    2.71630900 L
 O-O_R            0   11.89428200   14.75457800   -4.86339000 L
 O-O_R            0   -0.63436100    9.54485800   11.60976300 L
 O-O_R            0   -1.17032100   11.75470300    4.84493400 L
 O-O_R            0   -3.44036900   14.18821100   -4.73296600 L
 O-O_R            0  -15.52171700    8.63682000   11.40107000 L
 O-O_R            0  -15.49940100   10.16010000    4.24457600 L
 O-O_R            0  -16.60466600   12.23504600   -3.62285000 L
 O-O_R            0   14.98546300    0.21125100   10.59541000 L
 O-O_R            0   13.87099000    3.35618900    3.93690400 L
 O-O_R            0   12.84215800    4.33223400   -3.94320900 L
 O-O_R            0    2.10804500   -0.73285900   10.99470900 L
 O-O_R            0   -1.30932900    0.29951000    2.23953000 L
 O-O_R            0   -2.00176800    3.27212800   -5.68868600 L
 O-O_R            0  -14.94271800   -1.72339100   11.60636100 L
 O-O_R            0  -15.36084900   -1.17673200    3.90993600 L
 O-O_R            0  -17.78410400    1.70442300   -3.83903800 L
 O-O_R            0   16.08142500  -13.25891600    8.37523900 L
 O-O_R            0   14.58384400   -9.39848500    1.60569900 L
 O-O_R            0   12.77219000   -5.19166100   -6.56472200 L
 O-O_R            0    1.55118700  -12.02688300   10.36962800 L
 O-O_R            0    0.45592200   -9.92575500    1.69281500 L
 O-O_R            0    0.98188700   -9.78001000   -6.95333900 L
 O-O_R            0   -9.80908400  -14.21914000    8.97122000 L
 O-O_R            0  -13.69157500  -11.72020000    1.81028600 L
 O-O_R            0  -12.36108200   -6.35276600   -6.83850300 L
 O-O_R            0    8.07955900    9.05091600    6.52861500 L
 O-O_R            0    7.15282000   10.70271900   -2.68645100 L
 O-O_R            0    4.34961600   12.78709500   -9.71632600 L
 O-O_R            0   -6.84765100    6.30145100    7.25246800 L
 O-O_R            0   -8.06604000    9.27486900   -1.14872800 L
 O-O_R            0   -8.18845700   11.18950100   -9.17150100 L
 O-O_R            0    9.34482200   -1.73270400    4.69411300 L
 O-O_R            0    8.94380000   -0.59745000   -1.75533500 L
 O-O_R            0    4.75807700    3.14243100   -9.82034200 L
 O-O_R            0   -5.66285200   -3.70605900    4.12934700 L
 O-O_R            0   -7.18640300   -0.45618900   -2.24132900 L
 O-O_R            0   -7.79871600    0.15765800  -10.77392500 L
 O-O_R            0    9.11501700  -12.02307200    4.98921300 L
 O-O_R            0    8.65543400  -12.74183000   -5.20210900 L
 O-O_R            0    6.94537600   -7.62408600  -10.75554300 L
 O-O_R            0   -3.96426000  -13.86744600    5.34337900 L
 O-O_R            0   -4.92705300  -11.82669500   -4.00477000 L
 O-O_R            0   -4.84588800   -8.80814300  -12.24767500 L
 O-O_R            0    5.55393800   13.63497400   11.35749700 L
 O-O_R            0    5.44523500   16.23042800    4.22063100 L
 O-O_R            0    4.91074200   17.91706200   -2.54802700 L
 O-O_R            0   -9.62827300   13.24953900   11.32192600 L
 O-O_R            0   -9.73181000   14.11438100    3.31564100 L
 O-O_R            0   -9.33458000   16.02042500   -3.69797800 L
 O-O_R            0    7.54354500    4.20644700   10.46521400 L
 O-O_R            0    5.28516600    5.27532600    3.62666400 L
 O-O_R            0    3.94115800    7.86436500   -3.66253500 L
 O-O_R            0   -7.14949600    3.20510500   10.67877400 L
 O-O_R            0   -8.80454400    3.02461600    3.95687100 L
 O-O_R            0  -11.24199000    3.67093100   -4.92219900 L
 O-O_R            0    8.68677800   -5.36421600   10.15344200 L
 O-O_R            0    6.95924100   -5.78992000    1.10808900 L
 O-O_R            0    6.57415600   -4.41187000   -4.10328900 L
 O-O_R            0   -6.63274300   -6.93795300    8.34742300 L
 O-O_R            0   -7.50171600   -6.23856400    1.64986600 L
 O-O_R            0   -4.51400100   -4.89467300   -4.60403800 L
 O-O_R            0   16.07372100    7.96546400    4.10015400 L
 O-O_R            0   16.18784800    8.44687400   -3.52241900 L
 O-O_R            0   14.22046500    9.52305300  -11.16223100 L
 O-O_R            0    1.67882000    4.02322700    6.70964600 L
 O-O_R            0    0.21489800    6.06178300   -0.88214900 L
 O-O_R            0   -1.15152400    7.63053100   -9.53573100 L
 O-O_R            0  -13.14169400    2.14913300    6.11711300 L
 O-O_R            0  -14.61580000    4.94473600   -0.51091300 L
 O-O_R            0  -15.06874400    6.75106300   -8.05883900 L
 O-O_R            0   17.93918500   -3.22036200    3.54888400 L
 O-O_R            0   15.01958800   -2.28805700   -2.81686400 L
 O-O_R            0   12.42673300   -0.98878800  -10.20090200 L
 O-O_R            0    3.88368600   -6.16504200    4.46791800 L
 O-O_R            0    1.28343700   -3.84531500   -2.42477100 H
 O-O_R            0    1.85305000   -2.00776200  -10.31944700 L
 O-O_R            0  -10.99328900   -8.04842800    3.69279200 L
 O-O_R            0  -13.75584600   -4.28561500   -1.72744300 L
 O-O_R            0  -14.81069500   -2.06546700   -9.35518800 L
 O-O_R            0   14.44492600  -16.69741000    1.23850400 L
 O-O_R            0   17.87038600  -13.12995700   -4.89672800 L
 O-O_R            0   17.97019700   -8.64134000  -10.86309900 L
 O-O_R            0    3.14132600  -16.24400600    2.39216800 L
 O-O_R            0    1.45335800  -16.60905000   -4.67016700 L
 O-O_R            0    2.16726700  -12.88757500  -11.71664700 L
 O-O_R            0   -9.59649200  -17.72867700    0.65009200 L
 O-O_R            0  -12.49281600  -14.15708200   -5.09303300 L
 O-O_R            0  -11.70462600  -13.18508300  -12.44533100 L
 O-O_R            0   13.23123900    4.91307100    6.94059500 L
 O-O_R            0   13.24985400    7.26896300    0.37557000 L
 O-O_R            0   11.68968900    8.62504900   -7.35797400 L
 O-O_R            0   -2.10787100    3.69141100    8.79402800 L
 O-O_R            0   -0.79884700    5.76751300    2.14778200 L
 O-O_R            0   -0.31587100    8.28722700   -3.87812300 L
 O-O_R            0  -14.89636000    2.01053300   11.44262600 L
 O-O_R            0  -16.38267900    3.63493300    3.89675400 L
 O-O_R            0  -16.12012200    5.84547100   -3.03276200 L
 O-O_R            0   14.83128400   -5.05028900    6.67145500 L
 O-O_R            0   14.42517700   -2.21350500    0.47755600 L
 O-O_R            0   11.09916200   -1.68396700   -5.59506000 L
 O-O_R            0   -0.32227100   -5.88431100    7.59672900 L
 O-O_R            0   -0.09604100   -5.82295000    0.81915200 L
 O-O_R            0   -1.18691100   -3.12372900   -6.34920800 L
 O-O_R            0  -13.98829100   -7.73354300    9.14936800 L
 O-O_R            0  -15.14745000   -7.38056000    1.90580600 L
 O-O_R            0  -17.39202900   -4.49837700   -5.16845500 L
 O-O_R            0   11.19898400  -16.41718500    5.15770600 L
 O-O_R            0   14.42368000  -15.05879100   -1.67531400 L
 O-O_R            0   16.22193800  -10.95424300   -7.05597700 L
 O-O_R            0    0.29641000  -16.92472800    6.16222300 L
 O-O_R            0    0.32381100  -15.74220600   -1.34855100 L
 O-O_R            0   -0.51776900  -15.92805200   -8.40183300 L
 O-O_R            0   -9.18749100  -18.30755800    3.80242600 L
 O-O_R            0  -13.02644000  -16.53997700   -2.58491900 L
 O-O_R            0  -13.57300900  -12.68126700   -7.71311200 L
 O-O_R            0    6.49143000   15.33560300    6.88180500 L
 O-O_R            0    6.47224400   16.70521500   -0.15945800 L
 O-O_R            0    6.58893300   18.35546600   -7.15377700 L
 O-O_R            0   -7.00269400   12.90962800    7.04518200 L
 O-O_R            0   -7.48963900   15.67579700    0.51822400 L
 O-O_R            0   -8.57596600   17.08894700   -6.42898400 L
 O-O_R            0    8.54569000    4.78055600    5.85204100 L
 O-O_R            0    8.94263300    5.59738600   -0.70264900 L
 O-O_R            0    7.49072200    9.05906300   -8.30162600 L
 O-O_R            0   -4.63709500    2.37802900    6.53745900 L
 O-O_R            0   -6.28839600    5.45242200    0.21013900 L
 O-O_R            0   -7.14683700    6.00936600   -7.64975000 L
 O-O_R            0   10.43698500   -5.70901500    5.42222700 L
 O-O_R            0    7.79414700   -6.50364600   -1.87070500 L
 O-O_R            0    8.71933300   -1.95550100   -7.71629400 L
 O-O_R            0   -5.09551100   -7.46619100    5.73284900 L
 O-O_R            0   -3.92778400   -5.93647700   -1.45921300 L
 O-O_R            0   -5.40785800   -3.82407900   -7.92266800 L
 O-O_3--0.834000  0   13.81755300   17.39115600    5.39996800 L
 O-O_3--0.834000  0   11.20213100   15.63249300    4.53555300 L
 O-O_3--0.834000  0   10.58967900   18.00603000   -6.09620000 L
 O-O_3--0.834000  0   -2.95405100   13.50701000    9.18011000 L
 O-O_3--0.834000  0   -3.12815500   14.93733000    3.24259200 L
 O-O_3--0.834000  0   -2.20026000   16.54424900    0.80506200 L
 O-O_3--0.834000  0  -18.16328300    6.73767700   12.43248400 L
 O-O_3--0.834000  0  -15.04265300   13.11537800    4.37588300 L
 O-O_3--0.834000  0  -14.26024000   16.63542200   -3.61412700 L
 O-O_3--0.834000  0   13.26639000    4.25786700   10.26084100 L
 O-O_3--0.834000  0   11.44048000    5.09978200    2.06175100 L
 O-O_3--0.834000  0   10.73222600    7.05656400   -4.74625200 L
 O-O_3--0.834000  0   -0.75990800    0.26077400    9.15621300 L
 O-O_3--0.834000  0   -2.76719600    2.95269900    3.13406100 L
 O-O_3--0.834000  0   -3.47044700    5.66786100   -5.49046500 L
 O-O_3--0.834000  0  -17.31505900   -0.61789800    8.76659300 L
 O-O_3--0.834000  0  -19.23048100    1.68803700    3.73005000 L
 O-O_3--0.834000  0  -19.33005400    3.87050400   -1.78765900 L
 O-O_3--0.834000  0   14.88181400   -7.91910200    7.49194600 L
 O-O_3--0.834000  0   13.57169800   -5.99679100    1.75644400 L
 O-O_3--0.834000  0   12.46059800   -4.57565300   -0.86402800 L
 O-O_3--0.834000  0   -2.37065300   -1.22288600   11.30106800 L
 O-O_3--0.834000  0   -0.95440100   -7.61621700    2.89512600 L
 O-O_3--0.834000  0    1.84109700   -5.91861700   -5.04431000 L
 O-O_3--0.834000  0  -16.51790700  -12.91123800    1.43305300 L
 O-O_3--0.834000  0  -17.98503800   -7.63961100   -0.59539800 L
 O-O_3--0.834000  0  -15.90034400   -7.24713800   -6.21970300 L
 O-O_3--0.834000  0    9.56706500    7.31794600    3.95236100 L
 O-O_3--0.834000  0    8.72466000    8.02823000   -2.65166400 L
 O-O_3--0.834000  0    7.08245900    6.12179700  -12.16144700 L
 O-O_3--0.834000  0   -4.58915800    5.13257800    4.50911200 L
 O-O_3--0.834000  0   -5.34052300    6.55656400   -3.28801600 L
 O-O_3--0.834000  0   -6.36270000    8.58459200  -10.05790600 L
 O-O_3--0.834000  0  -18.28291500   -0.32681300    5.83789600 L
 O-O_3--0.834000  0  -19.86041400    3.22409500    1.14857200 L
 O-O_3--0.834000  0  -19.04975400    4.58256500   -4.74810500 L
 O-O_3--0.834000  0   11.19660000   -3.58146200    2.35571800 L
 O-O_3--0.834000  0    9.60904200   -3.45061400   -0.83765800 L
 O-O_3--0.834000  0    9.39953800    4.27381900  -11.21487400 L
 O-O_3--0.834000  0   -2.66058400   -5.09800800    4.69899700 L
 O-O_3--0.834000  0   -4.71260000   -2.62020900   -2.38176000 H
 O-O_3--0.834000  0   -5.06602600   -1.88562700  -10.83944200 L
 O-O_3--0.834000  0  -16.63636100   -9.91276900    0.89026400 L
 O-O_3--0.834000  0  -18.09959600   -7.11668000   -3.60486400 L
 O-O_3--0.834000  0  -14.53780600   -4.97837500   -8.59538000 L
 O-O_3--0.834000  0    8.26012300  -15.98509000    3.62538200 L
 O-O_3--0.834000  0   10.43205900  -16.49519700   -1.86400200 L
 O-O_3--0.834000  0   11.88946800  -13.44091100   -6.81568800 L
 O-O_3--0.834000  0   -4.50494200  -16.48400700   -0.23373100 L
 O-O_3--0.834000  0   -4.42637300  -15.39216700   -3.12877600 L
 O-O_3--0.834000  0   -7.76899200  -13.63643100   -6.98767700 L
 O-O_3--0.834000  0  -16.99369100  -15.93501600    1.56131800 L
 O-O_3--0.834000  0  -19.26153600   -6.77867900   -6.49019300 L
 O-O_3--0.834000  0  -17.47408300   -5.92164200   -8.87732200 L
 O-O_3--0.834000  0    2.66768600    5.16636100    9.94696400 L
 O-O_3--0.834000  0    4.35098900    6.86376600    0.94735100 L
 O-O_3--0.834000  0    2.88281400    7.66672300   -7.22632200 L
 O-O_3--0.834000  0   -9.09498000    4.13226800    8.55037400 L
 O-O_3--0.834000  0  -10.03101700    4.42699400    1.44879300 L
 O-O_3--0.834000  0  -12.04900900    5.45112700   -7.03298200 L
 O-O_3--0.834000  0    4.25556300   -4.67816600    7.67222700 L
 O-O_3--0.834000  0    6.15598900   -3.83976100   -0.96339800 L
 O-O_3--0.834000  0    5.08632600   -1.92587100   -6.57648600 L
 O-O_3--0.834000  0   -9.60344100   -5.64670100    7.76485000 L
 O-O_3--0.834000  0  -10.40064200   -5.14841200   -1.73799100 L
 O-O_3--0.834000  0   -9.97939700   -2.15846400   -6.17557100 L
 O-O_3--0.834000  0    7.45213900  -14.76238100    6.33663100 L
 O-O_3--0.834000  0    8.87026200  -16.74969700    0.74786000 L
 O-O_3--0.834000  0   11.60534800  -15.47873900   -4.51895000 L
 O-O_3--0.834000  0   -3.47038800  -17.37044100    2.46497600 L
 O-O_3--0.834000  0   -6.13191500  -18.92428700    1.27052700 L
 O-O_3--0.834000  0   -4.99378700  -14.42034900   -5.99000900 L
 O-O_3--0.834000  0   12.66662600   17.86375300    2.63075600 L
 O-O_3--0.834000  0   11.57386400   17.62322300   -0.21691600 L
 O-O_3--0.834000  0   10.95440600   17.14443400   -3.16704800 L
 O-O_3--0.834000  0   -3.15379100   14.38797700    6.22542600 L
 O-O_3--0.834000  0    0.56138800   15.85451400   -0.77108600 L
 O-O_3--0.834000  0   -1.45423000   18.27162200   -1.62278100 L
 O-O_3--0.834000  0  -12.39870100   14.56122200    5.45061200 L
 O-O_3--0.834000  0  -12.93222700   14.84000700    2.11949000 L
 O-O_3--0.834000  0  -13.90183500   15.51886600   -0.72484200 L
 O-O_3--0.834000  0   18.39917900    5.89470200    4.50445300 L
 O-O_3--0.834000  0   17.28267700    6.65835500   -6.01315500 L
 O-O_3--0.834000  0   16.93172900    7.68499200   -8.89483300 L
 O-O_3--0.834000  0    1.85612800    2.24389600    9.76421200 L
 O-O_3--0.834000  0    2.78486400    3.85393700    0.44768700 H
 O-O_3--0.834000  0   -0.29795000    6.45109500   -6.47357000 L
 O-O_3--0.834000  0  -10.80978000    1.05573700    8.08234000 L
 O-O_3--0.834000  0  -12.56499100    2.36328800    0.30340500 L
 O-O_3--0.834000  0  -13.89075800    3.79461300   -8.82899900 L
 O-O_3--0.834000  0   15.27767200   -7.44676000    4.40345000 L
 O-O_3--0.834000  0   15.75504300   -4.76099900   -0.59347000 L
 O-O_3--0.834000  0   17.22143100   -2.95756300   -8.49180200 L
 O-O_3--0.834000  0    3.91616200   -7.74797400    7.78496800 L
 O-O_3--0.834000  0    3.69892800   -5.11844000   -2.59422200 H
 O-O_3--0.834000  0    2.84031900   -4.26727200   -7.91139300 L
 O-O_3--0.834000  0  -10.44363800   -8.88017400    6.90437700 L
 O-O_3--0.834000  0   -8.84086300   -3.32531100   -3.64520100 L
 O-O_3--0.834000  0  -11.87276600   -3.60557500   -8.05454900 L
 H-H_-0.417000    0   14.38902200   17.34675500    6.20885300 L
 H-H_-0.417000    0   10.61601600   14.83777400    4.45456300 L
 H-H_-0.417000    0   10.97261600   18.49502600   -5.32371200 L
 H-H_-0.417000    0   -3.74753600   13.89964800    8.73386000 L
 H-H_-0.417000    0   -3.68322300   15.06206000    2.42847900 L
 H-H_-0.417000    0   -2.04983100   16.24748000   -0.13154400 L
 H-H_-0.417000    0  -17.52981700    7.15078900   13.07192200 L
 H-H_-0.417000    0  -14.55625800   13.30464300    5.22047600 L
 H-H_-0.417000    0  -14.06351400   17.56825400   -3.88914300 L
 H-H_-0.417000    0   14.16009700    4.43628900    9.87287100 L
 H-H_-0.417000    0   11.85025600    4.19986400    2.13328600 L
 H-H_-0.417000    0   11.61725900    7.49239700   -4.83481300 L
 H-H_-0.417000    0    0.16160500    0.45914500    9.47549300 L
 H-H_-0.417000    0   -2.79185800    3.93486200    3.00354600 L
 H-H_-0.417000    0   -4.27578500    6.24756100   -5.53176400 L
 H-H_-0.417000    0  -17.10595400    0.20479700    9.28219200 L
 H-H_-0.417000    0  -18.35221600    1.64674500    4.19260400 L
 H-H_-0.417000    0  -19.17666500    3.03001700   -1.28226400 L
 H-H_-0.417000    0   15.70259700   -7.84095400    6.94050000 L
 H-H_-0.417000    0   14.29606500   -5.53045600    1.25619400 L
 H-H_-0.417000    0   12.00911400   -4.11077800   -0.11004100 L
 H-H_-0.417000    0   -1.94131200   -1.53108800   10.46175500 L
 H-H_-0.417000    0   -1.48643500   -6.85571400    3.25074800 L
 H-H_-0.417000    0    1.41524500   -6.70157100   -5.47810200 L
 H-H_-0.417000    0  -17.34109800  -13.39154400    1.71373200 L
 H-H_-0.417000    0  -17.07037000   -7.63550600   -0.20573500 L
 H-H_-0.417000    0  -15.21761500   -7.93926400   -6.02707900 L
 H-H_-0.417000    0    9.84318100    6.95133000    4.82773600 L
 H-H_-0.417000    0    9.50434400    7.42118300   -2.60684800 L
 H-H_-0.417000    0    6.11626500    5.95589500  -12.31568500 L
 H-H_-0.417000    0   -5.16079300    5.79026000    4.03460100 L
 H-H_-0.417000    0   -5.51209700    7.31614300   -2.67341400 L
 H-H_-0.417000    0   -6.16773900    7.62982800  -10.23539500 L
 H-H_-0.417000    0  -18.73405900   -0.25765400    6.72084200 L
 H-H_-0.417000    0  -19.47935800    3.62464700    1.97418300 L
 H-H_-0.417000    0  -18.35091400    4.50313100   -4.04949800 L
 H-H_-0.417000    0   10.75089800   -3.64074400    3.23875200 L
 H-H_-0.417000    0    8.63652000   -3.56868000   -1.01740300 L
 H-H_-0.417000    0    8.46724700    4.25649200  -10.87954300 L
 H-H_-0.417000    0   -2.64895700   -4.12827300    4.49031100 L
 H-H_-0.417000    0   -5.46868900   -2.79356200   -2.95102100 H
 H-H_-0.417000    0   -4.44550100   -2.59599300  -10.53842200 L
 H-H_-0.417000    0  -16.52692000  -10.34698800    1.77717700 L
 H-H_-0.417000    0  -17.99245200   -6.45769800   -2.86735300 L
 H-H_-0.417000    0  -15.23446400   -4.91381600   -9.30293600 L
 H-H_-0.417000    0    8.75382900  -15.26775700    4.10311100 L
 H-H_-0.417000    0   10.02879000  -17.31836100   -1.48008800 L
 H-H_-0.417000    0   12.25035700  -14.36094200   -6.72791300 L
 H-H_-0.417000    0   -4.68573600  -16.03601700    0.63577400 L
 H-H_-0.417000    0   -3.72869300  -15.17858500   -2.45630600 L
 H-H_-0.417000    0   -7.02082000  -13.99727300   -7.53042300 L
 H-H_-0.417000    0  -17.35854100  -16.45769400    0.80025900 L
 H-H_-0.417000    0  -19.56322400   -6.29508700   -5.67808000 L
 H-H_-0.417000    0  -17.30083600   -6.67572900   -8.25380500 L
 H-H_-0.417000    0    1.93554900    5.74239300    9.60462000 L
 H-H_-0.417000    0    5.23530700    7.26559600    1.14066300 L
 H-H_-0.417000    0    3.48960800    6.91884900   -7.00451200 L
 H-H_-0.417000    0   -9.30228300    4.43711500    9.46744300 L
 H-H_-0.417000    0  -10.41746100    4.52457500    2.35299000 L
 H-H_-0.417000    0  -11.92574800    5.07592200   -7.94142800 L
 H-H_-0.417000    0    3.53182500   -4.00212800    7.62495800 L
 H-H_-0.417000    0    5.81666200   -4.65322300   -1.42413700 L
 H-H_-0.417000    0    4.86728100   -1.23952300   -5.89483700 L
 H-H_-0.417000    0   -9.07924200   -5.84106200    8.58037900 L
 H-H_-0.417000    0   -9.97245700   -5.45305700   -2.57860700 L
 H-H_-0.417000    0   -9.91706200   -2.97183600   -6.74478200 L
 H-H_-0.417000    0    6.87113700  -13.96295800    6.42623700 L
 H-H_-0.417000    0    8.11849300  -16.19758700    1.09058500 L
 H-H_-0.417000    0   10.73098500  -15.90901600   -4.32523500 L
 H-H_-0.417000    0   -3.06157900  -17.36970600    3.36839100 L
 H-H_-0.417000    0   -7.04132400  -19.31362400    1.20853900 L
 H-H_-0.417000    0   -4.26017200  -14.03371400   -5.44513900 L
 H-H_-0.417000    0   12.39770500   18.37509100    3.44082200 L
 H-H_-0.417000    0   12.31056000   18.20555700    0.10804700 L
 H-H_-0.417000    0   10.38912400   17.51580600   -2.43943200 L
 H-H_-0.417000    0   -3.08643500   13.75627300    5.46109700 L
 H-H_-0.417000    0    1.12182800   15.07688700   -1.02628800 L
 H-H_-0.417000    0   -1.54837600   18.72718400   -2.49809200 L
 H-H_-0.417000    0  -11.45074300   14.38516200    5.67683600 L
 H-H_-0.417000    0  -13.05925600   14.18797600    1.38028300 L
 H-H_-0.417000    0  -14.78033900   15.83401200   -1.06442800 L
 H-H_-0.417000    0   18.79900200    6.66959100    4.97316500 L
 H-H_-0.417000    0   17.66865700    7.47674800   -6.41827000 L
 H-H_-0.417000    0   16.35659900    8.44110200   -9.17969900 L
 H-H_-0.417000    0    2.43589700    2.78402100    9.16544700 L
 H-H_-0.417000    0    2.09362500    3.24656300    0.14087900 H
 H-H_-0.417000    0   -0.75461900    7.32954800   -6.44260200 L
 H-H_-0.417000    0  -10.69973700    0.12101500    8.39321600 L
 H-H_-0.417000    0  -12.65987700    1.37758600    0.35214800 L
 H-H_-0.417000    0  -14.85467200    3.98221600   -8.97275200 L
 H-H_-0.417000    0   15.87713300   -7.94652400    3.79251800 L
 H-H_-0.417000    0   14.91256200   -4.62284200   -1.10434500 L
 H-H_-0.417000    0   16.28792300   -3.15906900   -8.75238800 L
 H-H_-0.417000    0    3.84546800   -7.09628800    7.04160300 L
 H-H_-0.417000    0    3.62687900   -5.74193900   -3.32766100 H
 H-H_-0.417000    0    2.64344400   -4.09263800   -8.86484700 L
 H-H_-0.417000    0  -11.42829200   -8.97722400    6.96837100 L
 H-H_-0.417000    0   -9.78513600   -3.20861800   -3.93294600 L
 H-H_-0.417000    0  -12.06388600   -4.17714400   -8.84535300 L
 H-H_-0.417000    0   13.06498900   16.77644500    5.61749300 L
 H-H_-0.417000    0   11.36072100   15.90242500    3.59350900 L
 H-H_-0.417000    0   10.37921500   17.12336600   -5.69601500 L
 H-H_-0.417000    0   -2.27041100   13.55878500    8.46333600 L
 H-H_-0.417000    0   -2.28437900   15.39032300    2.97786300 L
 H-H_-0.417000    0   -2.21452700   17.53274200    0.69264400 L
 H-H_-0.417000    0  -18.34943900    7.45464200   11.77483200 L
 H-H_-0.417000    0  -14.49149800   13.58608200    3.69942700 L
 H-H_-0.417000    0  -14.51394100   16.18820700   -4.46322100 L
 H-H_-0.417000    0   13.21258600    3.27031600   10.31214500 L
 H-H_-0.417000    0   11.23273500    5.18778800    1.09619500 L
 H-H_-0.417000    0   10.67925900    6.47948700   -5.55022100 L
 H-H_-0.417000    0   -0.89870600    0.95654900    8.46312800 L
 H-H_-0.417000    0   -3.45689600    2.81872100    3.83234900 L
 H-H_-0.417000    0   -3.51727700    5.32867200   -4.55891300 L
 H-H_-0.417000    0  -17.10326700   -1.35102100    9.40106100 L
 H-H_-0.417000    0  -19.68523200    0.88851600    4.10633400 L
 H-H_-0.417000    0  -19.71696800    4.45470000   -1.08258800 L
 H-H_-0.417000    0   14.17028500   -7.75044100    6.82338400 L
 H-H_-0.417000    0   12.98843900   -6.31501100    1.01713100 L
 H-H_-0.417000    0   11.78969600   -4.45604600   -1.58875900 L
 H-H_-0.417000    0   -2.23492200   -0.24211900   11.25316500 L
 H-H_-0.417000    0   -0.50241700   -7.98284700    3.69499000 L
 H-H_-0.417000    0    2.03917900   -5.32107700   -5.81606800 L
 H-H_-0.417000    0  -15.89462200  -13.66738600    1.27114700 L
 H-H_-0.417000    0  -18.42727900   -8.33507900   -0.04062600 L
 H-H_-0.417000    0  -16.20683400   -6.96712100   -5.31582100 L
 H-H_-0.417000    0   10.12646000    6.81783300    3.30170900 L
 H-H_-0.417000    0    8.75428100    8.32725300   -3.59515900 L
 H-H_-0.417000    0    7.13587900    7.10647100  -12.05071000 L
 H-H_-0.417000    0   -4.98276300    5.09780100    5.41958000 L
 H-H_-0.417000    0   -5.91103400    5.83204400   -2.92429000 L
 H-H_-0.417000    0   -6.82574300    8.58125100   -9.18270600 L
 H-H_-0.417000    0  -17.42725300   -0.76584200    6.08584300 L
 H-H_-0.417000    0  -20.15096100    2.33437800    1.48159700 L
 H-H_-0.417000    0  -19.87253500    4.36747000   -4.23822300 L
 H-H_-0.417000    0   12.03646600   -4.09602200    2.49318100 L
 H-H_-0.417000    0    9.62496300   -3.17011000    0.11548100 L
 H-H_-0.417000    0    9.33426200    4.89639800  -11.98410200 L
 H-H_-0.417000    0   -3.36397900   -5.17964500    5.39270500 L
 H-H_-0.417000    0   -4.69135900   -3.34207800   -1.74651100 H
 H-H_-0.417000    0   -5.33591100   -1.42355400  -10.00623400 L
 H-H_-0.417000    0  -16.42017100  -10.66450500    0.27695900 L
 H-H_-0.417000    0  -18.35965800   -7.92979300   -3.09543200 L
 H-H_-0.417000    0  -14.99398300   -5.55815500   -7.92866100 L
 H-H_-0.417000    0    7.54427900  -16.20363900    4.27944000 L
 H-H_-0.417000    0   10.18078700  -15.82043600   -1.17902900 L
 H-H_-0.417000    0   11.44240700  -13.31286600   -5.94091900 L
 H-H_-0.417000    0   -3.71722000  -17.04649800   -0.00292300 L
 H-H_-0.417000    0   -5.09540600  -15.87750000   -2.57716200 L
 H-H_-0.417000    0   -7.30851300  -13.37553400   -6.15017200 L
 H-H_-0.417000    0  -16.79760700  -16.62529100    2.24699300 L
 H-H_-0.417000    0  -18.61107800   -7.42788200   -6.11384100 L
 H-H_-0.417000    0  -18.40929300   -5.68129400   -8.64329200 L
 H-H_-0.417000    0    3.39342700    5.80982300   10.15729200 L
 H-H_-0.417000    0    4.47575500    5.89654900    1.13100200 L
 H-H_-0.417000    0    1.97853600    7.28081200   -7.07959900 L
 H-H_-0.417000    0   -9.57541100    3.26566300    8.48035400 L
 H-H_-0.417000    0  -10.67618300    3.83237600    0.98220800 L
 H-H_-0.417000    0  -12.96488600    5.14556200   -6.80992600 L
 H-H_-0.417000    0    5.08478400   -4.13405400    7.68153600 L
 H-H_-0.417000    0    5.31943600   -3.32791500   -0.81966000 L
 H-H_-0.417000    0    6.00485500   -2.21231000   -6.33400800 L
 H-H_-0.417000    0   -9.72859800   -6.54068200    7.34914900 L
 H-H_-0.417000    0   -9.84928600   -4.36355800   -1.48518800 L
 H-H_-0.417000    0  -10.68725000   -1.64392900   -6.64476900 L
 H-H_-0.417000    0    7.78731400  -14.90942000    7.25909700 L
 H-H_-0.417000    0    9.22880500  -17.13452100    1.59127500 L
 H-H_-0.417000    0   12.09685200  -15.64281400   -3.67151300 L
 H-H_-0.417000    0   -4.15756900  -18.08909100    2.52024700 L
 H-H_-0.417000    0   -6.01236900  -18.46555900    0.39709500 L
 H-H_-0.417000    0   -5.17257400  -15.27095300   -5.50927500 L
 H-H_-0.417000    0   13.56710300   17.53584700    2.89943200 L
 H-H_-0.417000    0   11.21870300   17.25851000    0.63530600 L
 H-H_-0.417000    0   11.74490300   16.82264800   -2.65976800 L
 H-H_-0.417000    0   -3.38115200   15.23564100    5.76099700 L
 H-H_-0.417000    0    0.49337100   15.78415000    0.21728300 L
 H-H_-0.417000    0   -0.57046000   17.81889800   -1.69247700 L
 H-H_-0.417000    0  -12.35277600   14.93204200    4.52882900 L
 H-H_-0.417000    0  -13.18791200   15.69076000    1.67348800 L
 H-H_-0.417000    0  -13.34689800   15.54793600   -1.54858300 L
 H-H_-0.417000    0   18.32529800    6.18699500    3.56095600 L
 H-H_-0.417000    0   16.88048900    6.20561600   -6.79822900 L
 H-H_-0.417000    0   17.25808800    7.30106100   -9.74958800 L
 H-H_-0.417000    0    1.87526000    2.78489300   10.59706000 L
 H-H_-0.417000    0    2.60893500    4.66716900   -0.03440800 H
 H-H_-0.417000    0   -1.04713900    5.81798400   -6.30779400 L
 H-H_-0.417000    0  -11.03200000    0.95667400    7.12181400 L