%nprocshared=32
%mem=32GB
%chk=monomer-S0-TD.chk
#p td=Nstates=6 oniom(cam-b3lyp/tzvp:uff) geom=connectivity

Title Card Required

0 1 0 1 0 1
 O-O_R            0    6.15550300    3.73187300   10.11682900 L
 O-O_R            0  -13.14761000   -1.83238000  -10.44987000 L
 O-O_R            0   -4.75479000  -12.50413000    8.40043900 L
 O-O_R            0    7.44291300    7.21011400    3.23017400 L
 O-O_R            0  -13.94995900   -5.69436200   -2.80445200 L
 O-O_R            0   -1.06554000   -5.21968500   -7.66009000 L
 O-O_R            0    8.43955100   10.54230000   -3.43127400 L
 O-O_R            0  -16.29553300   -8.45955600    3.95595400 L
 O-O_R            0   -2.53159700   -9.21438000   -0.99103800 L
 O-O_R            0   -6.95797400    5.54263400    8.85906900 L
 O-O_R            0    0.69617500   -3.82799800   -9.79836600 L
 O-O_R            0  -18.22455400   -9.11068700    6.33359400 L
 O-O_R            0   -5.44629000    7.31501200    6.79413600 L
 O-O_R            0   -6.36144700    8.99116400    2.44692300 L
 O-O_R            0   -0.57699500   -7.65627200   -2.78007300 L
 O-O_R            0  -14.64614800   -3.05568700   -7.70162500 L
 O-O_R            0   -4.24370000   11.29018800   -1.54179200 L
 O-O_R            0   -5.48450900   12.51189900   -3.90784800 L
 O-O_R            0   -2.38541900  -10.37102500    3.08079000 L
 O-O_R            0  -15.78190100   -6.36530500   -0.41211700 L
 O-O_R            0   -3.89072000   14.25178000   -9.64798800 L
 O-O_R            0   14.58826800   -5.92155000  -11.51595900 L
 O-O_R            0    8.79433800  -15.21078600    8.12607200 L
 O-O_R            0    8.17139700    4.76516400    7.90143100 L
 O-O_R            0   15.30934100  -10.53421400   -3.95567100 L
 O-O_R            0   12.42785300   -7.41419600   -6.40328300 L
 O-O_R            0    9.90395800    8.66591600    1.22541000 L
 O-O_R            0   10.80982600  -12.15736800    3.28779000 L
 O-O_R            0   11.42572000  -11.31487300    0.06279000 L
 O-O_R            0   10.30606600   11.07658200   -6.01315700 L
 O-O_R            0    2.70072900   -5.54911500    9.01144700 L
 O-O_R            0  -10.82097200    7.26097900   -8.80979400 L
 O-O_R            0   -4.55656900   -2.58523100   10.16879000 L
 O-O_R            0    6.33059000   -3.64223200    1.52173300 L
 O-O_R            0  -13.34529300    5.20244800   -2.62046500 L
 O-O_R            0    1.19576800    4.56607600   -4.67793800 L
 O-O_R            0    7.20313900    0.46290400   -5.82205800 L
 O-O_R            0  -14.73456300    1.21897100    5.54054800 L
 O-O_R            0   -0.05490200    0.39653700    1.72328400 L
 O-O_R            0  -10.20709500   -3.54275300    7.05977300 L
 O-O_R            0    3.04613100    5.66312400   -6.91881100 L
 O-O_R            0  -16.95521000    0.34958900    7.77695200 L
 O-O_R            0   -8.02482600   -2.61416500    4.33316600 L
 O-O_R            0   -7.65514300   -1.00762600    0.00998600 L
 O-O_R            0    1.96511000    1.86824300   -0.60855400 H
 O-O_R            0  -12.72721900    7.20101100   -6.31964600 L
 O-O_R            0   -7.14091200    0.85033200   -2.44699600 L
 O-O_R            0   -5.97291900    3.47393600   -6.43738800 L
 O-O_R            0   -0.70040700   -1.15847900    6.29500400 L
 O-O_R            0  -14.57176600    3.00078500    0.94353600 L
 O-O_R            0   -5.59277300    3.46341400  -10.43886400 L
 O-O_R            0   17.68091400    3.68943100   -8.54937600 L
 O-O_R            0    9.61854600   -5.17348900   11.14105800 L
 O-O_R            0    6.23572800   -5.12395900    5.88162200 L
 O-O_R            0   16.74233500   -0.33063700   -1.02610100 L
 O-O_R            0   14.17845200    2.19535200   -5.29762900 L
 O-O_R            0    9.25015600   -1.08366600   -1.81883900 L
 O-O_R            0   13.87002100   -3.83019900    7.19242700 L
 O-O_R            0   13.34859800   -1.88065500    2.20909300 L
 O-O_R            0   10.18622200    3.16700900  -10.29278100 L
 O-O_R            0    1.85395300  -15.10489500    5.41693800 L
 O-O_R            0  -10.11417700   16.65373700   -6.36861100 L
 O-O_R            0   -0.79874200    6.30246500   12.06675100 L
 O-O_R            0    4.31795000  -12.73020300   -1.68861500 L
 O-O_R            0  -10.79263700   13.86229200    1.76561000 L
 O-O_R            0    1.83486200   13.47222500   -1.68953000 L
 O-O_R            0    5.42422200   -9.16432500   -7.72583500 L
 O-O_R            0  -11.85469800    9.88103700    9.56929900 L
 O-O_R            0    0.63957400   10.06870900    4.86361400 L
 O-O_R            0  -11.35855600  -12.52297200    5.57071300 L
 O-O_R            0    1.02734300   14.81023800   -5.18601000 L
 O-O_R            0  -13.21661200    8.35898800   11.68795900 L
 O-O_R            0   -9.55090700  -11.91201600    3.30785200 L
 O-O_R            0   -9.75980900  -10.82466400   -1.57804200 L
 O-O_R            0    3.07836900   12.39529500    0.91959400 L
 O-O_R            0  -10.90555100   16.92431000   -3.40784400 L
 O-O_R            0   -7.69371200   -8.36833500   -5.46229200 L
 O-O_R            0   -8.48214700   -6.74780400   -7.82552200 L
 O-O_R            0    1.94821600    8.71525400    7.52813600 L
 O-O_R            0  -13.05598900   12.36181200    3.93167000 L
 O-O_R            0   -6.34739300   -3.18434100  -13.07319800 L
 O-O_R            0   20.66562600   13.49796600   -4.35709500 L
 O-O_R            0   12.72289200    3.91284800   13.15115500 L
 O-O_R            0    3.66982100  -14.36157500    3.04497100 L
 O-O_R            0   17.05667300   10.02017400    2.66284900 L
 O-O_R            0   15.80580400   12.33352200   -2.46395000 L
 O-O_R            0    6.63695200  -10.58719300   -5.20553000 L
 O-O_R            0   15.45660000    6.57364200    9.15836900 L
 O-O_R            0   14.48379900    7.95783800    6.33115200 L
 O-O_R            0    7.53819000   -5.97428200  -12.73576800 L
 O-O_R            0    6.52457200    9.74543900   13.06384200 L
 O-O_R            0  -12.71471500   -8.19257500  -12.46137300 L
 O-O_R            0   -6.27730200  -16.79048100    3.81915900 L
 O-O_R            0    8.17008700   12.82605500    6.43253000 L
 O-O_R            0  -15.34199000  -11.59439800   -5.37252900 L
 O-O_R            0   -1.78754800  -11.50130000   -9.15172800 L
 O-O_R            0    9.88726700   15.85043400    0.07549300 L
 O-O_R            0  -16.58375500  -14.51872300    1.34213300 L
 O-O_R            0   -3.19591200  -15.42241200   -2.88555200 L
 O-O_R            0   -7.13257500   11.78500000   11.21952600 L
 O-O_R            0    0.78382900   -9.77426600  -12.88337400 L
 O-O_R            0  -19.21762700  -15.62048700    5.54380600 L
 O-O_R            0   -4.75502200   13.72802500    7.70054500 L
 O-O_R            0   -5.68973000   14.94568400    4.85904000 L
 O-O_R            0   -0.71378100  -13.14631400   -6.37193700 L
 O-O_R            0  -14.74396200   -9.56325200   -8.06630600 L
 O-O_R            0   -3.30164800   17.00420700    1.27699300 L
 O-O_R            0   -3.16077200   18.39409100   -2.28905800 L
 O-O_R            0   -3.25233200  -16.06964400    0.15228100 L
 O-O_R            0  -17.97726500  -12.51769600   -1.28780500 L
 O-O_R            0   -2.46851400   19.03380400   -5.48096500 L
 O-O_R            0   14.55590100  -12.35171300  -12.19327400 L
 O-O_R            0    6.92428500  -20.13233500    4.53274800 L
 O-O_R            0    8.80738800   11.14635500    9.07082900 L
 O-O_R            0   12.76582000  -16.18161500   -5.56379100 L
 O-O_R            0   12.55583200  -13.77380600   -7.79400600 L
 O-O_R            0   10.70004300   14.85518000    2.83405700 L
 O-O_R            0   10.52491000  -18.52398000    1.60414000 L
 O-O_R            0   10.40558900  -17.54324300   -1.46096200 L
 O-O_R            0   12.28925300   17.12211300   -4.09537100 L
 O-O_R            0    4.97221300    0.46757400   10.29721800 L
 O-O_R            0  -11.77133800    1.15617900  -11.37907900 L
 O-O_R            0   -2.59185900   -7.82284200    6.97163000 L
 O-O_R            0    6.90001800    2.53162600    3.77874500 L
 O-O_R            0  -13.70403200   -1.30949500   -3.57921800 L
 O-O_R            0   -0.46907200   -1.62020300   -6.22124400 L
 O-O_R            0    8.40373600    5.75805600   -2.07810300 L
 O-O_R            0  -15.58196300   -4.16187900    1.92567700 L
 O-O_R            0   -1.51687000   -5.71883900   -0.32706100 L
 O-O_R            0   -9.36370300    3.02096200    9.53469800 L
 O-O_R            0    2.16658500   -0.60273200  -10.21877100 L
 O-O_R            0  -18.36236000   -5.84301200    5.88704200 L
 O-O_R            0   -6.64648300    3.60899000    5.80679000 L
 O-O_R            0   -7.25940200    4.88342000    2.85336400 L
 O-O_R            0    1.25083500   -3.79518100   -3.27060700 H
 O-O_R            0  -14.11369500    0.73477900   -6.88945800 L
 O-O_R            0   -4.59646700    6.68702500   -0.46078900 L
 O-O_R            0   -5.86638000    9.32965500   -3.65118500 L
 O-O_R            0   -0.47348900   -6.65980400    2.70136200 L
 O-O_R            0  -16.04829100   -3.08273200   -0.88920800 L
 O-O_R            0   -3.67313900    9.83634400   -7.91372000 L
 O-O_R            0   15.44017600   -2.55839200   -8.25847600 L
 O-O_R            0   10.32200100  -10.75745100    8.24076000 L
 O-O_R            0    7.86771900    1.24726900    6.52319800 L
 O-O_R            0   14.29770800   -6.38264900   -1.73341400 L
 O-O_R            0   13.94670500   -4.16432200   -6.04938900 L
 O-O_R            0    9.54284800    4.81583300    0.66972700 L
 O-O_R            0   13.44257500   -9.69858900    4.42789700 L
 O-O_R            0   12.65309300   -8.08087500    0.72963800 L
 O-O_R            0   10.34495800    8.07819200   -6.11133600 L
 O-O_R            0    2.34396400   -9.60666900    9.21069300 L
 O-O_R            0  -10.87464700   10.38292200   -8.50798800 L
 O-O_R            0   -1.02370900    1.38077800    7.79356300 L
 O-O_R            0    4.59542000   -7.21753500    1.84021600 L
 O-O_R            0  -11.54785900    8.08580000   -1.31306800 L
 O-O_R            0    2.02717200    7.47938300   -4.44912400 L
 O-O_R            0    6.36515400   -3.56232400   -4.52686800 L
 O-O_R            0  -13.46256500    5.31041500    5.09972600 L
 O-O_R            0    0.18399600    4.21903000    2.30203600 L
 O-O_R            0  -11.43488800   -6.16832000    7.53784700 L
 O-O_R            0    3.74869600    8.62415700   -7.03437500 L
 O-O_R            0  -15.97626700    3.06692900    8.89852900 L
 O-O_R            0   -8.60937300   -5.35316100    3.57704200 L
 O-O_R            0   -8.52314400   -4.74496800    0.39675000 L
 O-O_R            0    2.51738000    6.05804000   -0.44337100 L
 O-O_R            0  -12.49229000   10.52877000   -3.85118200 L
 O-O_R            0   -6.67301700   -2.98635900   -2.05002700 L
 O-O_R            0   -7.07011000   -1.22429800   -4.73693300 L
 O-O_R            0    0.47442300    2.77873900    5.35116400 L
 O-O_R            0  -14.27147100    6.16437800    2.35872400 L
 O-O_R            0   -4.15143200    0.43043500   -8.27281400 L
 O-O_R            0   18.21792400    7.47176000   -5.59114800 L
 O-O_R            0   11.40926200   -0.77278100    8.87566200 L
 O-O_R            0    4.72721100   -8.11862600    5.04366100 L
 O-O_R            0   16.73835700    3.84054000    0.70340400 L
 O-O_R            0   16.26937800    6.01100700   -3.68163000 L
 O-O_R            0    8.02547200   -5.89097100   -0.91308900 L
 O-O_R            0   15.05683100    0.60253500    6.65004300 L
 O-O_R            0   14.04200500    2.62647400    2.62516600 L
 O-O_R            0    9.34559200   -1.86193300   -8.37277200 L
 N-N_R            0    9.24732700    6.70289800   11.76465800 L
 N-N_R            0  -15.81552500   -5.51479100  -11.19235900 L
 N-N_R            0   -2.60764900  -15.14215900    5.29620600 L
 N-N_R            0   10.87461600    9.76745100    5.13162700 L
 N-N_R            0  -17.61688600   -8.15981500   -4.17548900 L
 N-N_R            0    1.61469300   -8.97577800   -8.53773200 L
 N-N_R            0   12.21759200   12.79152700   -1.80931000 L
 N-N_R            0  -19.45498200  -11.54045200    2.44963800 L
 N-N_R            0    0.16095000  -12.86844500   -2.13942200 L
 N-N_R            0   -4.12272400    8.84869400   10.37273200 L
 N-N_R            0   -2.17190700   -6.98413800  -11.52691600 L
 N-N_R            0  -15.82961800  -13.01569300    5.72004200 L
 N-N_R            0   -8.12984000   11.10651100    7.45332200 L
 N-N_R            0   -2.88110200   11.93560400    3.66081500 L
 N-N_R            0   -3.65438700  -10.35590000   -4.97211800 L
 N-N_R            0  -11.72778200   -6.58477800   -8.69160400 L
 N-N_R            0   -6.77915600   14.66435500    0.48555000 L
 N-N_R            0   -1.40549700   14.52542300   -2.85452800 L
 N-N_R            0   -5.94372600  -13.05334600    1.55558500 L
 N-N_R            0  -14.13676300  -10.62508200   -1.41207700 L
 N-N_R            0   -6.09245000   17.26878700   -6.94242100 L
 N-N_R            0   11.83424300   -9.47320100  -10.56475300 L
 N-N_R            0   10.77968000  -18.57378900    5.53971400 L
 N-N_R            0    5.45944000    8.50958700    8.66806300 L
 N-N_R            0   11.08678200  -12.57173700   -3.97819000 L
 N-N_R            0   15.53805700  -10.69575300   -7.69456800 L
 N-N_R            0    7.23682900   12.42129700    2.19356500 L
 N-N_R            0    7.68495800  -15.40466500    2.36852300 L
 N-N_R            0   13.92729100  -15.15250000   -0.99657600 L
 N-N_R            0    8.54971900   15.08489800   -4.54125600 L
 N-N_R            0    6.74688900   -3.34854200    9.48933500 L
 N-N_R            0  -14.22540400    4.39353200  -10.03874400 L
 N-N_R            0   -0.61968900   -4.26678000    8.28555600 L
 N-N_R            0    9.66230800   -0.43399000    2.40137000 L
 N-N_R            0  -16.49556200    1.93385000   -3.61980400 L
 N-N_R            0    3.22708400    0.48558900   -5.72329000 L
 N-N_R            0   10.78563800    3.19524700   -4.53763400 L
 N-N_R            0  -18.19560500   -1.16628200    3.48928200 L
 N-N_R            0    2.08964600   -3.59642600    0.59309900 L
 N-N_R            0   -7.34719200   -0.60075500    8.42146500 L
 N-N_R            0    0.22730800    2.89842100   -8.67882200 L
 N-N_R            0  -14.80788500   -3.57031900    6.59070100 L
 N-N_R            0  -10.27059400    1.37969800    5.33232000 L
 N-N_R            0   -4.42121300    1.84239700    1.83836000 L
 N-N_R            0   -1.46550300   -0.68380900   -2.46288800 H
 N-N_R            0  -10.57470000    3.13228400   -6.67300400 L
 N-N_R            0   -8.49085900    5.03999300   -1.03731900 L
 N-N_R            0   -2.96289300    6.23061300   -4.12750900 L
 N-N_R            0   -3.60249100   -4.18073200    4.25507100 L
 N-N_R            0  -12.38366600   -1.04093800   -0.00366900 L
 N-N_R            0   -6.81641800    6.98692700   -8.33718700 L
 N-N_R            0   13.71368300    1.34181700   -8.69475700 L
 N-N_R            0   13.03240800   -7.59267500    9.16624200 L
 N-N_R            0    4.21996800   -0.99404800    6.67471700 L
 N-N_R            0   12.60551700   -2.45495300   -1.50847000 L
 N-N_R            0   16.86042300   -1.46968800   -4.44548600 L
 N-N_R            0    6.25802200    2.25016000   -0.30859800 L
 N-N_R            0   10.60203000   -6.60702200    5.29052600 L
 N-N_R            0   15.96397900   -5.78167400    2.16315800 L
 N-N_R            0    7.49413200    5.02156800   -7.03354100 L
 N-N_R            0    5.02189800  -12.42677200    7.41500200 L
 N-N_R            0  -13.38732400   13.43341400   -6.84676600 L
 N-N_R            0    2.09487100    3.22380000   10.07454000 L
 N-N_R            0    7.51249500  -10.04409500    0.48723400 L
 N-N_R            0  -14.15398600   11.22442400   -0.00351500 L
 N-N_R            0    4.90941700   10.15218500   -2.74346200 L
 N-N_R            0    8.92212200   -6.78768400   -5.71471700 L
 N-N_R            0  -15.58178700    8.19658100    7.45638200 L
 N-N_R            0    3.51210600    6.53686200    3.63721500 L
 N-N_R            0   -8.47041900   -9.21755000    7.01427000 L
 N-N_R            0    0.50858300   11.34314000   -7.67158200 L
 N-N_R            0  -12.08008000    4.85490400    8.85217400 L
 N-N_R            0  -11.96994800   -8.00018900    3.62075900 L
 N-N_R            0   -6.10401600   -8.21058800   -0.21169600 L
 N-N_R            0   -0.22105000    9.34793100   -0.41503000 L
 N-N_R            0   -8.96077100   12.86529100   -4.54838800 L
 N-N_R            0  -10.20600300   -4.83327500   -3.61807600 L
 N-N_R            0   -4.73325700   -4.31909300   -6.52994500 L
 N-N_R            0   -1.83633100    6.28176200    6.19014400 L
 N-N_R            0  -10.73338500    8.57307000    2.48809700 L
 N-N_R            0   -8.04679900   -0.84322000   -9.49701100 L
 N-N_R            0   16.73487600   11.49517100   -5.69132000 L
 N-N_R            0   14.96985500    0.49735700   10.88259900 L
 N-N_R            0    1.30368200  -10.60182600    4.38398400 L
 N-N_R            0   14.06484100    7.17603400    0.43527100 L
 N-N_R            0   18.35935900    8.72974100   -1.13215300 L
 N-N_R            0    4.42285700   -7.21076300   -2.83250900 L
 N-N_R            0   12.26311900    3.81840800    7.13508200 L
 N-N_R            0   17.09330400    4.23898300    5.16301000 L
 N-N_R            0    5.58501600   -3.67833300   -9.25767600 L
 H-H_             0   10.27952100    6.86808800   11.74721200 L
 H-H_             0  -16.78192300   -5.85983500  -10.99300800 L
 H-H_             0   -1.68578600  -15.59343300    5.09673300 L
 H-H_             0   11.90875300    9.89583600    5.21427700 L
 H-H_             0  -18.65984800   -8.19564800   -4.11548600 L
 H-H_             0    2.58324300   -9.33058000   -8.70810500 L
 H-H_             0   13.25927100   12.84951500   -1.83578000 L
 H-H_             0  -20.48021200  -11.74103100    2.41352900 L
 H-H_             0    1.13987200  -13.18763200   -2.32135900 L
 H-H_             0   -3.10801600    9.09994500   10.36808600 L
 H-H_             0   -3.18880300   -7.22695600  -11.52444800 L
 H-H_             0  -14.86040500  -13.36035000    5.53332600 L
 H-H_             0   -9.09648500   11.45794500    7.63997900 L
 H-H_             0   -1.85214000   12.11176700    3.70931300 L
 H-H_             0   -4.67644300  -10.55587000   -5.06439500 L
 H-H_             0  -10.77779000   -6.84120900   -9.04136000 L
 H-H_             0   -7.73906000   15.06189100    0.60432000 L
 H-H_             0   -0.39279400   14.35276900   -2.66966800 L
 H-H_             0   -6.96797200  -13.11682200    1.35459300 L
 H-H_             0  -13.27479400  -11.15191100   -1.68192800 L
 H-H_             0   -7.01639700   17.74262300   -6.82017100 L
 H-H_             0   10.82711600   -9.70094600  -10.39997600 L
 H-H_             0   11.65352400  -19.11347700    5.34447200 L
 H-H_             0    4.48453500    8.84823800    8.83396600 L
 H-H_             0   10.05175900  -12.43069200   -3.93213300 L
 H-H_             0   16.53185200  -10.89241600   -7.95151300 L
 H-H_             0    6.27670000   12.80404500    2.35074400 L
 H-H_             0    6.67713700  -15.51612900    2.11424600 L
 H-H_             0   14.87894400  -15.54960300   -1.16748200 L
 H-H_             0    7.65160400   15.51391400   -4.22164400 L
 H-H_             0    7.76014900   -3.44818000    9.25678400 L
 H-H_             0  -15.26660700    4.30982800  -10.00162700 L
 H-H_             0    0.42212000   -4.18515600    8.26413200 L
 H-H_             0   10.68647700   -0.23355600    2.32839200 L
 H-H_             0  -17.48690500    1.79676500   -3.92199100 L
 H-H_             0    4.14783300    0.03085400   -5.92156700 L
 H-H_             0   11.80415200    3.37240600   -4.69408900 L
 H-H_             0  -19.23211100   -1.24767200    3.38072800 L
 H-H_             0    3.02708800   -4.02833400    0.42917900 L
 H-H_             0   -6.31855900   -0.62545000    8.24366200 L
 H-H_             0   -0.81185300    2.95874900   -8.60441600 L
 H-H_             0  -13.85726500   -3.95662400    6.38930800 L
 H-H_             0  -11.20283000    1.82239700    5.49556200 L
 H-H_             0   -3.39547700    1.99984000    1.96736700 L
 H-H_             0   -2.44463600   -0.81613700   -2.64321000 H
 H-H_             0   -9.62816300    2.72178400   -6.84013700 L
 H-H_             0   -9.34709600    5.57714300   -0.77119000 L
 H-H_             0   -1.95329000    6.38514400   -3.90108800 L
 H-H_             0   -4.60661300   -4.45501400    4.15943400 L
 H-H_             0  -11.45790200   -1.51112200   -0.12725000 L
 H-H_             0   -7.82369300    7.24992200   -8.24365200 L
 H-H_             0   12.70627100    1.46260800   -8.94572300 L
 H-H_             0   14.06888400   -7.72926200    9.17752700 L
 H-H_             0    3.31382000   -0.53826200    6.92726300 L
 H-H_             0   11.58585800   -2.29312300   -1.66962800 L
 H-H_             0   17.85658500   -1.75240500   -4.30245100 L
 H-H_             0    5.27183700    2.57330000   -0.17924900 L
 H-H_             0    9.57953900   -6.75459800    5.13010900 L
 H-H_             0   16.92783300   -6.18562700    2.19022600 L
 H-H_             0    6.49683600    5.09201300   -6.72737300 L
 H-H_             0    6.05731100  -12.28299300    7.43327500 L
 H-H_             0  -14.37166600   13.22936500   -6.56033100 L
 H-H_             0    3.06116600    2.82443600   10.09001900 L
 H-H_             0    8.53527900   -9.88087100    0.63466800 L
 H-H_             0  -15.19103200   11.09391800    0.01264000 L
 H-H_             0    5.89212900    9.84314700   -2.56892400 L
 H-H_             0    9.91423800   -6.83395000   -5.38891000 L
 H-H_             0  -16.62161900    8.15850800    7.55581900 L
 H-H_             0    4.46742700    6.11658500    3.69918600 L
 H-H_             0   -7.45017100   -8.99467100    7.06239300 L
 H-H_             0   -0.39607800   11.02307300   -8.08633300 L
 H-H_             0  -11.29997800    4.48093100    8.26820300 L
 H-H_             0  -12.94259500   -7.65835200    3.79335100 L
 H-H_             0   -5.08382500   -8.20639900    0.01766700 L
 H-H_             0   -1.20353700    9.23507700   -0.75352000 L
 H-H_             0   -8.11023500   12.44682800   -4.98929400 L
 H-H_             0  -11.13412800   -4.35550300   -3.55532500 L
 H-H_             0   -3.70496900   -4.38744500   -6.35352200 L
 H-H_             0   -2.84709500    6.33090200    5.92826000 L
 H-H_             0   -9.80350600    8.20202500    2.18779500 L
 H-H_             0   -8.91404000   -0.36052100   -9.17208600 L
 H-H_             0   15.81639300   11.72163000   -6.13641900 L
 H-H_             0   15.84113100   -0.07958200   10.84987100 L
 H-H_             0    0.33814300  -10.27620100    4.61833900 L
 H-H_             0   13.16580200    7.10178700   -0.09298400 L
 H-H_             0   19.29078900    8.48890400   -0.72322800 L
 H-H_             0    3.53420400   -6.66694700   -2.74137400 L
 H-H_             0   11.31623200    3.77960400    6.69316200 L
 H-H_             0   17.97858700    3.71294100    5.34274700 L
 H-H_             0    4.67174100   -3.27405500   -8.94818200 L
 C-C_R            0    7.08266400    7.59010100   12.13948300 L
 C-C_R            0  -13.59140800   -6.03634900  -11.82473700 L
 C-C_R            0   -4.94294700  -15.10636100    4.90419400 L
 C-C_R            0    8.71918400   10.68717500    5.45802000 L
 C-C_R            0  -15.59736000   -9.31051700   -4.63468100 L
 C-C_R            0   -0.70793500   -9.42241200   -8.57687600 L
 C-C_R            0   10.17900600   13.80890500   -1.17477800 L
 C-C_R            0  -17.24762100  -12.34593700    2.15538300 L
 C-C_R            0   -2.15211100  -13.33230700   -2.30533100 L
 C-C_R            0   -6.36379700    9.56158600   10.67670000 L
 C-C_R            0    0.05642500   -7.69743800  -11.89981900 L
 C-C_R            0  -18.15094900  -13.47428800    5.70619700 L
 C-C_R            0   -5.81479200   11.58497700    7.38374100 L
 C-C_R            0   -5.06389400   12.79691800    3.95787900 L
 C-C_R            0   -1.43002800  -11.09272700   -5.32683600 L
 C-C_R            0  -13.91858700   -7.30277500   -8.16898000 L
 C-C_R            0   -4.44846800   14.95283300    0.76692600 L
 C-C_R            0   -3.22179000   16.03417000   -2.74681300 L
 C-C_R            0   -3.80657500  -14.03799800    1.33203300 L
 C-C_R            0  -16.49084300  -10.62790500   -1.16545900 L
 C-C_R            0   -3.76681700   17.27270900   -6.49252800 L
 C-C_R            0   13.98555600  -10.24975700  -11.17378200 L
 C-C_R            0    8.43677200  -18.41446600    5.26989900 L
 C-C_R            0    7.77283800    9.00304400    8.68848800 L
 C-C_R            0   12.87739700  -14.03535200   -4.47527800 L
 C-C_R            0   13.32207200  -11.50511400   -7.52650800 L
 C-C_R            0    9.56786600   12.79098700    2.31816700 L
 C-C_R            0    9.85645000  -16.35176400    2.41505800 L
 C-C_R            0   11.58794500  -15.48157600   -1.07508500 L
 C-C_R            0   10.91172000   15.22501000   -4.63518100 L
 C-C_R            0    4.98235400   -1.93177400   10.18152200 L
 C-C_R            0  -12.14391300    3.32702600  -10.41089600 L
 C-C_R            0   -2.53213500   -5.53924100    7.72233100 L
 C-C_R            0    7.49287200    0.36327800    2.91137900 L
 C-C_R            0  -14.33566000    1.00084500   -3.37071900 L
 C-C_R            0    0.86825800    0.32168400   -5.72350700 L
 C-C_R            0    8.74439100    3.92926600   -3.59766200 L
 C-C_R            0  -16.06878600   -2.14412800    3.14296600 L
 C-C_R            0   -0.26266000   -3.79201400    0.41193200 L
 C-C_R            0   -9.23111300    0.65519900    9.11540500 L
 C-C_R            0    2.12314300    1.57268300   -9.18359500 L
 C-C_R            0  -17.15264500   -3.83569600    6.40802000 L
 C-C_R            0   -7.91602300    1.60205300    5.38663200 L
 C-C_R            0   -6.61576100    2.71976600    2.00266400 L
 C-C_R            0    0.69790500   -1.62149800   -2.50438500 H
 C-C_R            0  -12.92140300    2.81629300   -6.68280800 L
 C-C_R            0   -6.12606300    4.91390000   -1.02352300 L
 C-C_R            0   -5.17103500    7.07476100   -4.10865800 L
 C-C_R            0   -1.33284600   -4.74666400    3.89376100 L
 C-C_R            0  -14.73663300   -1.16750200   -0.23318600 L
 C-C_R            0   -4.56471800    7.62520600   -8.04069100 L
 C-C_R            0   15.51467900   -0.14694500   -8.30307500 L
 C-C_R            0   10.91265400   -8.46870500    8.59935800 L
 C-C_R            0    6.56129700   -0.77636300    6.39693600 L
 C-C_R            0   14.40372900   -3.99316300   -1.43900900 L
 C-C_R            0   14.65593200   -2.13261000   -4.99164700 L
 C-C_R            0    8.55757500    2.74993200   -0.09419100 L
 C-C_R            0   12.79310800   -7.49391600    5.16122900 L
 C-C_R            0   13.66584900   -6.14471900    1.74398500 L
 C-C_R            0    9.68162100    5.91797300   -6.93193100 L
 C-C_R            0    2.87066400  -11.56611700    7.91196600 L
 C-C_R            0  -11.34129400   12.61047600   -7.71296700 L
 C-C_R            0   -0.14204700    3.01018500    9.33008700 L
 C-C_R            0    5.29510100   -9.28393800    0.81073400 L
 C-C_R            0  -12.02943600   10.30823300   -0.50948400 L
 C-C_R            0    2.74264800    9.58595300   -3.51360000 L
 C-C_R            0    6.86016300   -5.62832500   -5.67176800 L
 C-C_R            0  -13.62796100    7.27976900    6.48002900 L
 C-C_R            0    1.25665700    6.26000400    2.98958100 L
 C-C_R            0  -10.70260000   -8.43037600    7.14074200 L
 C-C_R            0    2.73909500   10.80967400   -7.07713100 L
 C-C_R            0  -14.38288100    4.79290700    9.38387300 L
 C-C_R            0   -9.65893600   -7.50865300    3.59501400 L
 C-C_R            0   -8.16472600   -7.05378200   -0.15978400 L
 C-C_R            0    1.90559500    8.36071300   -0.09774600 L
 C-C_R            0  -11.20594700   12.56977600   -3.85379700 L
 C-C_R            0   -7.89242400   -4.76501300   -3.13039900 L
 C-C_R            0   -6.74242200   -3.11279300   -6.19304200 L
 C-C_R            0    0.15511000    5.00496700    6.22426100 L
 C-C_R            0  -13.06770100    8.22427200    2.63434800 L
 C-C_R            0   -5.70311000   -1.08815400   -9.29456800 L
 C-C_R            0   18.33681100    9.83947700   -5.13489100 L
 C-C_R            0   12.73396400    0.77659700   10.15966000 L
 C-C_R            0    3.63154300  -10.18161300    4.46266500 L
 C-C_R            0   16.07587900    6.12368500    1.10564800 L
 C-C_R            0   16.47291100    8.00775800   -2.36310300 L
 C-C_R            0    6.71744900   -7.39816300   -2.27536000 L
 C-C_R            0   14.34458500    2.74905200    7.49229900 L
 C-C_R            0   14.96447800    4.26310300    4.13503600 L
 C-C_R            0    7.94051800   -3.66460200   -9.06245600 L
 C-C_R            0    8.80399700    5.45435700   11.44394700 L
 C-C_R            0  -15.58688900   -4.17793900  -11.05968900 L
 C-C_R            0   -2.62376800  -14.10884300    6.18614200 L
 C-C_R            0   10.42715400    8.59047200    4.60741400 L
 C-C_R            0  -17.00975700   -6.98250200   -3.85227600 L
 C-C_R            0    1.48513300   -7.69105900   -8.10039000 L
 C-C_R            0   11.63778800   11.69371000   -2.37097600 L
 C-C_R            0  -19.07679000  -10.28167700    2.80871200 L
 C-C_R            0   -0.00493100  -11.64729300   -1.55560100 L
 C-C_R            0   -4.45311100    7.56232200   10.06604100 L
 C-C_R            0   -1.82644100   -5.71643200  -11.16396000 L
 C-C_R            0  -15.96780300  -11.74386600    6.19156300 L
 C-C_R            0   -7.99406300    9.79701500    7.09900900 L
 C-C_R            0   -3.28911000   10.69634000    3.25980300 L
 C-C_R            0   -3.29640600   -9.17651200   -4.38914500 L
 C-C_R            0  -11.94428500   -5.28145400   -8.35411600 L