%nprocshared=32
%mem=32GB
%chk=monomer-S2-opt-freq.chk
#p opt=tight oniom(td=(nstates=6,root=2)/b3lyp/tzvp:uff) geom=connectivity

Title Card Required

0 1 0 1 0 1
 O-O_R            0    6.08640900   -3.16424400  -10.19881300 L
 O-O_R            0  -12.67837500    0.97232000    9.96478700 L
 O-O_R            0   -5.63097800   13.49790900   -8.07414300 L
 O-O_R            0    7.64819900   -6.84470600   -3.61480900 L
 O-O_R            0  -14.07330700    5.25926000    2.90805100 L
 O-O_R            0   -1.18273800    5.37353100    7.11129600 L
 O-O_R            0    8.82937400  -10.48165700    2.96817100 L
 O-O_R            0  -16.76573000    8.25430000   -3.45487300 L
 O-O_R            0   -2.65765900    9.15100800    0.58459400 L
 O-O_R            0   -6.97695900   -5.55466100   -8.62633300 L
 O-O_R            0    0.49376300    3.58444200    9.03297100 L
 O-O_R            0  -18.75057200    8.51333600   -5.92897700 L
 O-O_R            0   -5.29569600   -7.49280300   -6.82935200 L
 O-O_R            0   -6.09752100   -9.24496600   -2.55837500 L
 O-O_R            0   -0.43290800    7.86666400    2.39854700 L
 O-O_R            0  -14.37963300    2.13242800    7.41991200 L
 O-O_R            0   -3.82798400  -11.49801100    1.36352200 L
 O-O_R            0   -5.01210800  -12.67404800    3.78179700 L
 O-O_R            0   -2.78436600   10.75100200   -3.47068000 L
 O-O_R            0  -16.01442300    5.95844300    0.63957700 L
 O-O_R            0   -3.17193100  -14.34288400    9.31563700 L
 O-O_R            0   12.00953800    5.39713700   11.32912900 L
 O-O_R            0    7.61743300   15.95478300   -8.24036900 L
 O-O_R            0    8.18331500   -4.44019400   -8.24525000 L
 O-O_R            0   14.57526800   10.00699400    4.23023800 L
 O-O_R            0   12.09198300    6.59165100    7.23149100 L
 O-O_R            0   10.05532000   -8.36816600   -1.68257200 L
 O-O_R            0   11.14125500   13.91399400   -4.03579300 L
 O-O_R            0   10.82366900   11.61865400    0.55219000 L
 O-O_R            0   10.75907600  -10.68433500    5.50385200 L
 O-O_R            0    3.25199600    5.99543300   -7.48888300 L
 O-O_R            0   -9.57979600   -8.50902200    8.42681200 L
 O-O_R            0   -3.86218300    3.04030900  -10.28055000 L
 O-O_R            0    6.37551400    3.27298700   -0.67823000 L
 O-O_R            0  -12.90401400   -5.66397200    2.79950700 L
 O-O_R            0    1.68050300   -4.46829100    4.42371600 L
 O-O_R            0    8.05876600   -0.38771400    5.65676800 L
 O-O_R            0  -14.77289400   -1.57912700   -5.36497600 L
 O-O_R            0   -0.58169600   -0.59663100   -1.67645200 L
 O-O_R            0   -9.49708900    4.06685700   -6.48967500 L
 O-O_R            0    3.45681700   -5.71283500    6.55624300 L
 O-O_R            0  -16.78088800   -0.54054400   -7.47987400 L
 O-O_R            0   -8.13512200    2.35654600   -4.48792500 L
 O-O_R            0   -7.89611800    0.43662800    0.34660500 L
 O-O_R            0    1.75347200   -1.95343500    0.54996800 H
 O-O_R            0  -12.79259400   -7.66445300    6.19934300 L
 O-O_R            0   -6.73225700   -1.24351600    2.56887600 L
 O-O_R            0   -5.98695200   -3.68798800    6.20504000 L
 O-O_R            0   -0.48958300    1.05102300   -5.78454400 L
 O-O_R            0  -14.53582200   -3.41493000   -0.59985800 L
 O-O_R            0   -2.36786000   -4.37076100   10.09934800 L
 O-O_R            0   17.56017200   -3.23558800    7.44105200 L
 O-O_R            0    9.76943100    6.54831700  -10.46195100 L
 O-O_R            0    5.95303100    5.08694400   -5.07581900 L
 O-O_R            0   16.93769600    0.63491200    1.69551900 L
 O-O_R            0   15.37421800   -2.79316900    5.40496500 L
 O-O_R            0    8.55076300    1.39616100    1.32096700 L
 O-O_R            0   13.70707600    3.99620600   -6.58140300 L
 O-O_R            0   13.42001200    1.57333200   -1.80860400 L
 O-O_R            0   10.38880700   -3.20962100   10.13601700 L
 O-O_R            0    1.06888700   16.12002600   -4.86861100 L
 O-O_R            0   -9.29553900  -17.09126400    6.38128500 L
 O-O_R            0   -0.85878200   -5.84293500  -12.09396000 L
 O-O_R            0    3.70370200   13.06753700    1.06767400 L
 O-O_R            0  -10.29709400  -14.29189400   -1.64094200 L
 O-O_R            0    2.33826900  -13.35403400    1.51298700 L
 O-O_R            0    4.95553100    9.62952100    7.12096300 L
 O-O_R            0  -11.68496900  -10.08357600   -9.52953800 L
 O-O_R            0    0.85249400  -10.00567100   -5.14432900 L
 O-O_R            0  -12.10115100   12.65287800   -5.06614700 L
 O-O_R            0    1.65957800  -14.85935800    4.81099300 L
 O-O_R            0  -13.13230700   -8.57112600  -11.59344400 L
 O-O_R            0  -10.03277700   11.88314300   -2.96462500 L
 O-O_R            0   -9.99062900   10.62177300    1.81581800 L
 O-O_R            0    3.45645200  -12.31713100   -1.19802400 L
 O-O_R            0  -10.20449500  -17.33215900    3.45071300 L
 O-O_R            0   -7.83993900    8.25109600    5.42765600 L
 O-O_R            0   -8.67006800    6.35058600    7.72188700 L
 O-O_R            0    2.04061600   -8.67984400   -7.85309800 L
 O-O_R            0  -12.43123600  -12.99027700   -3.73126100 L
 O-O_R            0   -5.96222900    3.85572800   12.20409700 L
 O-O_R            0   20.73139700   -9.57697500    5.41799700 L
 O-O_R            0   12.82486200   -2.83486900  -13.49345500 L
 O-O_R            0    3.33343200   15.14203400   -2.89381100 L
 O-O_R            0   17.22061300   -9.73685300   -3.27361900 L
 O-O_R            0   16.18220600  -12.62144100    1.47294700 L
 O-O_R            0    6.59312900   10.70943600    4.77610400 L
 O-O_R            0   15.46230600   -5.85598800   -9.68467200 L
 O-O_R            0   14.36890100   -7.35924300   -6.88563300 L
 O-O_R            0    7.07742000    5.82794100   12.46512000 L
 O-O_R            0    6.51291500   -9.18055300  -13.06306600 L
 O-O_R            0  -13.58657900    6.84670300   12.99369400 L
 O-O_R            0   -7.51598000   17.65219600   -3.61267200 L
 O-O_R            0    8.48686000  -12.50662000   -6.70743700 L
 O-O_R            0  -15.71792200   10.74189100    6.13522000 L
 O-O_R            0   -2.08424900   11.57038700    8.80163900 L
 O-O_R            0   10.14549000  -15.89122000   -0.42173100 L
 O-O_R            0  -17.06823400   14.04487200   -0.30863500 L
 O-O_R            0   -3.49720000   15.41335100    2.36745600 L
 O-O_R            0   -6.88292900  -11.69501200  -11.12607300 L
 O-O_R            0    0.24236600    9.39730000   12.27813400 L
 O-O_R            0  -19.77293500   14.90073700   -4.39192000 L
 O-O_R            0   -4.47575100  -13.84982900   -7.93827500 L
 O-O_R            0   -5.31775700  -15.13210000   -5.08733100 L
 O-O_R            0   -0.77257800   13.38874400    5.83439100 L
 O-O_R            0  -15.45238000    8.45054700    8.58088200 L
 O-O_R            0   -2.78659000  -17.15452600   -1.54711100 L
 O-O_R            0   -2.45108100  -18.43844800    2.06511000 L
 O-O_R            0   -4.02603200   16.35774800   -0.52632600 L
 O-O_R            0  -18.60502000   11.81498700    2.22621300 L
 O-O_R            0   -1.74511000  -19.12349800    5.12920200 L
 O-O_R            0   15.00749800   11.69018700   12.23855100 L
 O-O_R            0    7.60684500   20.76728500   -3.88963600 L
 O-O_R            0    9.11695500  -10.78653700   -9.40818500 L
 O-O_R            0   12.05041200   15.71509000    6.03354600 L
 O-O_R            0   13.44387900   13.08275500    8.16234900 L
 O-O_R            0   10.86273700  -14.59746600   -3.17455000 L
 O-O_R            0   10.52261100   19.16397400   -0.16459400 L
 O-O_R            0    9.83274100   17.73596200    2.51482900 L
 O-O_R            0   13.15067800  -16.56437200    3.57985500 L
 O-O_R            0    4.64174800    0.37884100  -10.43628500 L
 O-O_R            0  -11.25901700   -2.01190500   10.38874000 L
 O-O_R            0   -3.18470900    8.72638900   -7.57510700 L
 O-O_R            0    6.76048100   -2.38653500   -4.05257100 L
 O-O_R            0  -13.63617900    0.88010100    3.25169600 L
 O-O_R            0   -0.33692400    1.65075800    5.77068100 L
 O-O_R            0    8.79856500   -5.53324000    1.73177100 L
 O-O_R            0  -15.66396100    4.00253500   -2.09715300 L
 O-O_R            0   -1.95522800    5.63274900   -0.33744100 L
 O-O_R            0   -9.60476900   -2.58861800   -9.00762400 L
 O-O_R            0    2.33720300    0.56555100    9.73542000 L
 O-O_R            0  -18.85271600    5.48569700   -5.76812800 L
 O-O_R            0   -6.61831500   -3.82531000   -5.87577400 L
 O-O_R            0   -7.19432600   -5.27667300   -2.79836400 L
 O-O_R            0    1.09562100    3.77721500    2.87568600 H
 O-O_R            0  -14.48761900   -1.46361500    7.05158200 L
 O-O_R            0   -4.36618200   -6.98589900    0.34772300 L
 O-O_R            0   -5.58727100   -9.54536800    3.56415500 L
 O-O_R            0   -0.99836500    6.97962100   -3.17989000 L
 O-O_R            0  -16.00488600    2.79800400    0.72750800 L
 O-O_R            0   -3.28729900  -10.13049700    7.93380300 L
 O-O_R            0   16.09029100    3.11093400    8.73954700 L
 O-O_R            0    9.31218700   11.37556500   -6.01133300 L
 O-O_R            0    7.63236100   -0.98418400   -6.95611200 L
 O-O_R            0   12.83876700    5.79210000    1.77285400 L
 O-O_R            0   15.11812100    3.82195900    5.87018500 L
 O-O_R            0    9.62988400   -4.57280200   -1.13695300 L
 O-O_R            0   12.90654000    9.71104700   -3.61785400 L
 O-O_R            0   12.65332600    7.99675300   -0.98977700 L
 O-O_R            0   10.89666200   -7.76618700    5.55927600 L
 O-O_R            0    1.42894300   10.32874700   -8.00001500 L
 O-O_R            0  -10.64507700  -11.22571500    9.22224200 L
 O-O_R            0   -1.33883200   -1.11009600   -7.66736100 L
 O-O_R            0    4.81130200    7.53973500   -2.27226100 L
 O-O_R            0  -11.31082500   -8.61086600    1.56140600 L
 O-O_R            0    2.36371400   -7.33343000    4.14032000 L
 O-O_R            0    6.56315100    3.99595700    4.31639900 L
 O-O_R            0  -13.38098600   -5.82907700   -4.80951200 L
 O-O_R            0    0.26647800   -4.23156600   -2.38417100 L
 O-O_R            0  -11.73110000    7.41719100   -8.95489200 L
 O-O_R            0    4.18111800   -8.61495900    6.64562800 L
 O-O_R            0  -16.05887200   -3.54335800   -8.50777900 L
 O-O_R            0   -9.03063500    5.41285300   -3.90860500 L
 O-O_R            0   -8.94342100    4.69049600   -0.58622500 L
 O-O_R            0    2.50772000   -6.00619900    0.14294700 L
 O-O_R            0  -12.16375800  -11.07333300    4.12564200 L
 O-O_R            0   -6.60177200    2.91552400    2.05056700 L
 O-O_R            0   -6.83238500    0.95743400    4.66966700 L
 O-O_R            0    0.39055800   -2.68321000   -5.84098000 L
 O-O_R            0  -14.13927600   -6.84095800   -2.08532700 L
 O-O_R            0   -5.53732000   -0.44066000    7.34928000 L
 O-O_R            0   14.94846400   -8.09114400    7.57758700 L
 O-O_R            0   11.03900400    1.59889500   -9.23949700 L
 O-O_R            0    5.06180700    9.21304900   -5.14843000 L
 O-O_R            0   16.79004900   -3.61005300   -1.17298900 L
 O-O_R            0   16.88507700   -6.28315000    2.80764400 L
 O-O_R            0    7.68801900    5.27819100    1.42007000 L
 O-O_R            0   14.86138600   -0.02871500   -6.83132600 L
 O-O_R            0   14.35898100   -2.14899500   -2.99027700 L
 O-O_R            0    9.36608900    1.85436100    8.10372400 L
 N-N_R            0    9.19681500   -5.99505600  -12.04531800 L
 N-N_R            0  -16.05523300    3.89875600   11.10039300 L
 N-N_R            0   -3.69669800   16.23112500   -4.93692100 L
 N-N_R            0   11.12854700   -9.36237400   -5.48531000 L
 N-N_R            0  -17.84153400    7.32437800    4.64580200 L
 N-N_R            0    1.39434400    9.16574000    8.13568500 L
 N-N_R            0   12.54313800  -12.73867500    1.20649800 L
 N-N_R            0  -19.93708000   11.15723800   -1.63458300 L
 N-N_R            0   -0.10307500   12.91783100    1.60116000 L
 N-N_R            0   -4.02152000   -8.57686900  -10.45794900 L
 N-N_R            0   -2.59021100    6.53378300   10.80373700 L
 N-N_R            0  -16.38044400   12.38497100   -5.10235300 L
 N-N_R            0   -7.91074100  -11.32629100   -7.53759000 L
 N-N_R            0   -2.56165800  -12.07962900   -3.87358900 L
 N-N_R            0   -3.62608400   10.42409900    4.62617400 L
 N-N_R            0  -11.99817300    5.92666500    8.79527300 L
 N-N_R            0   -6.31183000  -14.94511800   -0.60520200 L
 N-N_R            0   -0.87040200  -14.49819200    2.65253700 L
 N-N_R            0   -6.47426300   13.01952300   -1.61665900 L
 N-N_R            0  -14.64311800   10.20261700    2.00297200 L
 N-N_R            0   -5.36460700  -17.58310200    6.83034800 L
 N-N_R            0   11.46612100    9.61376100   11.01166300 L
 N-N_R            0   10.55182200   18.04248400   -5.40008300 L
 N-N_R            0    5.65023000   -8.31972500   -8.93448400 L
 N-N_R            0   10.45394600   12.13623500    4.31081200 L
 N-N_R            0   15.64345400    9.49691700    7.33609500 L
 N-N_R            0    7.40398600  -12.17542600   -2.46127300 L
 N-N_R            0    7.77048600   16.42172700   -1.97290900 L
 N-N_R            0   13.32940700   15.44422600    1.57693800 L
 N-N_R            0    9.26876900  -14.88585600    4.29471600 L
 N-N_R            0    6.93092300    3.79557000   -9.23795100 L
 N-N_R            0  -12.77189800   -5.99341300    9.91455000 L
 N-N_R            0   -0.63952800    5.31156500   -7.86749200 L
 N-N_R            0    9.58800000    0.49430300   -2.62881000 L
 N-N_R            0  -16.13559700   -2.52054700    3.92334400 L
 N-N_R            0    3.46791300   -0.29831600    5.51189300 L
 N-N_R            0   11.49049800   -3.18875700    4.08218800 L
 N-N_R            0  -18.23097000    0.81072200   -3.32147800 L
 N-N_R            0    1.67359400    3.45032200   -0.93321900 L
 N-N_R            0   -7.23209800    0.91951900   -8.33925200 L
 N-N_R            0    0.52999600   -3.07058100    8.34314000 L
 N-N_R            0  -15.04614200    3.62947200   -6.40404500 L
 N-N_R            0  -10.29399500   -1.75948300   -5.13003600 L
 N-N_R            0   -4.59900300   -2.00217800   -1.86822100 L
 N-N_R            0   -1.70159400    0.65678800    2.19762100 H
 N-N_R            0  -10.71512400   -3.47179300    6.65501200 L
 N-N_R            0   -8.25884100   -5.38827500    1.07564100 L
 N-N_R            0   -2.76140300   -6.37690300    4.08685700 L
 N-N_R            0   -3.85329900    4.05367900   -4.45038800 L
 N-N_R            0  -12.35798400    0.70652500   -0.10127100 L
 N-N_R            0   -5.94775900   -6.82295400    8.38480200 L
 N-N_R            0   14.00548600   -0.62933700    8.83833400 L
 N-N_R            0   12.49946500    9.27103600   -7.94869100 L
 N-N_R            0    3.93446300    1.12962000   -6.56605500 L
 N-N_R            0   12.37414300    1.54324300    1.84912600 L
 N-N_R            0   18.07080900    0.90335000    4.82449600 L
 N-N_R            0    6.12376700   -2.33185300   -0.11717500 L
 N-N_R            0   10.22193500    6.57330200   -4.77234000 L
 N-N_R            0   16.04270700    5.43608100   -1.57957400 L
 N-N_R            0    7.88303400   -4.94425700    6.71483400 L
 N-N_R            0    4.17214000   13.49543400   -7.10676800 L
 N-N_R            0  -12.79939500  -14.14597600    6.96228600 L
 N-N_R            0    1.83691800   -2.57299400  -10.12866200 L
 N-N_R            0    7.31066200   10.28375100   -0.13007200 L
 N-N_R            0  -13.77339200  -11.83052500    0.16952900 L
 N-N_R            0    5.33041400   -9.89249200    2.41369100 L
 N-N_R            0    8.77916500    7.16484800    6.12053000 L
 N-N_R            0  -15.44911300   -8.66305800   -7.27125500 L
 N-N_R            0    3.61680100   -6.38273000   -3.94712300 L
 N-N_R            0   -8.90906800    9.85626900   -6.89172100 L
 N-N_R            0    1.10131100  -11.47650000    7.41439800 L
 N-N_R            0  -12.08357300   -5.13608000   -8.63961400 L
 N-N_R            0  -12.43343400    7.97367200   -3.49912700 L
 N-N_R            0   -6.43368500    8.08486100    0.06210300 L
 N-N_R            0    0.01150300   -9.48112700    0.21194600 L
 N-N_R            0   -8.46183700  -13.18877300    4.61380200 L
 N-N_R            0  -10.21606800    4.63806700    3.55530200 L
 N-N_R            0   -4.71144200    4.32517600    6.22407700 L
 N-N_R            0   -1.73930600   -6.35828000   -6.36509200 L
 N-N_R            0  -10.46367800   -9.02763000   -2.33544600 L
 N-N_R            0   -8.67201800    0.74913700    9.99861300 L
 N-N_R            0   16.40865700  -11.10767700    4.92230700 L
 N-N_R            0   14.84007400    0.43088700  -10.80751000 L
 N-N_R            0    1.37347400   11.04184600   -3.96886300 L
 N-N_R            0   14.17540200   -6.99802100   -0.99992700 L
 N-N_R            0   18.69311900   -9.03927600    0.07941400 L
 N-N_R            0    4.13888500    7.35252300    2.58489200 L
 N-N_R            0   12.18695500   -3.30493900   -7.53329200 L
 N-N_R            0   17.24662200   -3.86959300   -5.64512400 L
 N-N_R            0    5.49700900    3.51246000    8.81844600 L
 H-H_             0   10.23326500   -6.12642000  -12.08511500 L
 H-H_             0  -17.06875100    4.07573600   10.91551500 L
 H-H_             0   -2.81195900   16.75110300   -4.73715900 L
 H-H_             0   12.16346600   -9.46541300   -5.58299100 L
 H-H_             0  -18.88644000    7.30115700    4.62977900 L
 H-H_             0    2.34923100    9.53894800    8.34013800 L
 H-H_             0   13.58462600  -12.78517100    1.17566900 L
 H-H_             0  -20.96266800   11.34403700   -1.55735400 L
 H-H_             0    0.87313700   13.25472400    1.76398500 L
 H-H_             0   -2.99488800   -8.76312400  -10.51707400 L
 H-H_             0   -3.61479500    6.74152100   10.79161900 L
 H-H_             0  -15.40608000   12.72193700   -4.92841600 L
 H-H_             0   -8.87167000  -11.69854800   -7.71289600 L
 H-H_             0   -1.52965500  -12.22865800   -3.94439300 L
 H-H_             0   -4.65175400   10.57911000    4.75658300 L
 H-H_             0  -11.08330400    6.28876800    9.14786600 L
 H-H_             0   -7.26052900  -15.37643400   -0.69167000 L
 H-H_             0    0.12929400  -14.27581700    2.45217400 L
 H-H_             0   -7.47571400   12.97229300   -1.31947000 L
 H-H_             0  -13.80967100   10.75799400    2.30278500 L
 H-H_             0   -6.26343900  -18.11258600    6.75994600 L
 H-H_             0   10.53136900   10.08187700   11.00230900 L
 H-H_             0   11.57574900   18.21804600   -5.28329500 L
 H-H_             0    4.69040700   -8.70673400   -9.08210800 L
 H-H_             0    9.42361200   11.95993000    4.28799100 L
 H-H_             0   16.68816900    9.48290900    7.36822400 L
 H-H_             0    6.44194300  -12.56501500   -2.58713100 L
 H-H_             0    6.73748300   16.55273900   -1.88345200 L
 H-H_             0   14.28561200   15.83824800    1.72875900 L
 H-H_             0    8.39652900  -15.40155200    4.03766400 L
 H-H_             0    7.97382500    3.76823500   -9.18067500 L
 H-H_             0  -13.79545000   -6.19575900    9.84903300 L
 H-H_             0    0.39217000    5.36732300   -7.70708200 L
 H-H_             0   10.61821800    0.32079100   -2.68469200 L
 H-H_             0  -17.10148900   -2.42742600    4.31227500 L
 H-H_             0    4.35523100    0.20428400    5.73677300 L
 H-H_             0   12.51335100   -3.40250000    4.11385800 L
 H-H_             0  -19.26552500    0.87028900   -3.18407700 L
 H-H_             0    2.60190700    3.91098900   -0.79474300 L
 H-H_             0   -6.18909800    0.88394900   -8.37429800 L
 H-H_             0   -0.50805700   -3.17304200    8.28272100 L
 H-H_             0  -14.14994700    4.13107300   -6.20959300 L
 H-H_             0  -11.21234800   -2.24904700   -5.22086200 L
 H-H_             0   -3.57026400   -2.06265400   -2.04595800 L
 H-H_             0   -2.68008400    0.79816400    2.36744600 H
 H-H_             0   -9.81237900   -2.95294300    6.74680300 L
 H-H_             0   -9.11814600   -5.93670000    0.84497400 L
 H-H_             0   -1.74840400   -6.51224600    3.86606800 L
 H-H_             0   -4.87991800    4.24842700   -4.41037000 L
 H-H_             0  -11.43241600    1.18846000   -0.03680800 L
 H-H_             0   -6.99019400   -6.90337200    8.37412800 L
 H-H_             0   12.96685400   -0.66555600    8.94168800 L
 H-H_             0   13.49418600    9.58109300   -7.86710100 L
 H-H_             0    3.02609100    0.68958200   -6.83707500 L
 H-H_             0   11.43445900    1.09624100    1.94425000 L
 H-H_             0   19.08116300    1.16093100    4.74996500 L
 H-H_             0    5.17034000   -2.69528100   -0.34601400 L
 H-H_             0    9.18958500    6.66303600   -4.63169200 L
 H-H_             0   17.01712500    5.80330900   -1.48753300 L
 H-H_             0    6.88869100   -5.04551500    6.40820300 L
 H-H_             0    5.20067600   13.37165700   -7.24680800 L
 H-H_             0  -13.79211800  -14.00014800    6.66935900 L
 H-H_             0    2.76888400   -2.09939300  -10.15462600 L
 H-H_             0    8.34571800   10.15286100   -0.05541500 L
 H-H_             0  -14.81552800  -11.74921400    0.16213400 L
 H-H_             0    6.29736600   -9.54397100    2.22762800 L
 H-H_             0    9.81342500    7.23527200    5.99207200 L
 H-H_             0  -16.49188600   -8.66058300   -7.34327000 L
 H-H_             0    4.55373100   -5.92626700   -4.03009400 L
 H-H_             0   -7.87297500    9.72132500   -6.92684400 L
 H-H_             0    0.20752200  -11.20361900    7.88232100 L
 H-H_             0  -11.30554100   -4.74330200   -8.06462800 L
 H-H_             0  -13.40930800    7.62662000   -3.64098900 L
 H-H_             0   -5.42696300    8.07692600   -0.22083500 L
 H-H_             0   -0.96579400   -9.43748600    0.58105000 L
 H-H_             0   -7.62503600  -12.72806000    5.03873600 L
 H-H_             0  -11.12132700    4.11783200    3.49813900 L
 H-H_             0   -3.69776200    4.46401900    6.00860500 L
 H-H_             0   -2.73031900   -6.45648700   -6.04775400 L
 H-H_             0   -9.55292000   -8.61347000   -2.03356100 L
 H-H_             0   -9.59769700    0.26346500    9.99779200 L
 H-H_             0   15.86686700  -11.97082200    4.69040700 L
 H-H_             0   15.69376600    1.01400800  -10.65166000 L
 H-H_             0    0.45741000   10.56861700   -4.14356100 L
 H-H_             0   13.27833100   -6.95798900   -0.46425500 L
 H-H_             0   19.60449700   -8.82713800   -0.38649900 L
 H-H_             0    3.19386700    6.92539100    2.44739500 L
 H-H_             0   11.23250600   -3.32211500   -7.10635400 L
 H-H_             0   18.15927200   -3.39386700   -5.82829600 L
 H-H_             0    4.62237400    3.08213500    8.44163700 L
 C-C_R            0    7.04432200   -6.95378500  -12.29924800 L
 C-C_R            0  -13.98530800    4.74463000   11.88360200 L
 C-C_R            0   -6.02189200   16.02393200   -4.55186300 L
 C-C_R            0    8.99261000  -10.33876000   -5.77420100 L
 C-C_R            0  -15.87387900    8.53901600    5.16132600 L
 C-C_R            0   -0.93917600    9.55070400    8.14543500 L
 C-C_R            0   10.48615400  -13.79888900    0.72743400 L
 C-C_R            0  -17.73063900   11.95467300   -1.31621200 L
 C-C_R            0   -2.42014600   13.33389600    1.81946100 L
 C-C_R            0   -6.22632300   -9.41533500  -10.68873500 L
 C-C_R            0   -0.39581400    7.30002300   11.26945400 L
 C-C_R            0  -18.70404700   12.81442900   -4.94245100 L
 C-C_R            0   -5.58322900  -11.74498600   -7.53711800 L
 C-C_R            0   -4.72717400  -12.99181100   -4.14389600 L
 C-C_R            0   -1.42695500   11.26402300    4.89466600 L
 C-C_R            0  -14.29227200    6.34772300    8.40167200 L
 C-C_R            0   -3.98367300  -15.14927700   -0.97209200 L
 C-C_R            0   -2.61521400  -16.08992400    2.55813800 L
 C-C_R            0   -4.45023700   14.24202800   -1.60802500 L
 C-C_R            0  -17.00071000   10.06115100    1.84373800 L
 C-C_R            0   -3.06950600  -17.45332300    6.25909000 L
 C-C_R            0   13.80491700    9.82471500   11.30914800 L
 C-C_R            0    8.33769300   18.70332100   -4.88333400 L
 C-C_R            0    7.98491000   -8.69772400   -8.99791700 L
 C-C_R            0   12.21501600   13.62665500    4.84380400 L
 C-C_R            0   13.64558000   10.73304100    7.65344000 L
 C-C_R            0    9.73417700  -12.53800200   -2.62690500 L
 C-C_R            0    9.93951500   17.24840400   -1.50755300 L
 C-C_R            0   10.99202400   15.75833900    1.76166600 L
 C-C_R            0   11.63703500  -14.82089600    4.27214800 L
 C-C_R            0    4.93908600    2.69526700   -9.88143600 L
 C-C_R            0  -11.07311300   -4.40262300   10.34021400 L
 C-C_R            0   -2.74143800    6.37882000   -7.71713400 L
 C-C_R            0    7.39246000   -0.28510000   -3.05639600 L
 C-C_R            0  -14.08074200   -1.47038200    3.40721200 L
 C-C_R            0    1.10418800   -0.25110200    5.43988400 L
 C-C_R            0    9.34238000   -3.79335300    3.29822700 L
 C-C_R            0  -16.12359300    1.86580400   -3.10629900 L
 C-C_R            0   -0.67972800    3.63635100   -0.79933300 L
 C-C_R            0   -9.28191400   -0.23296300   -8.61545900 L
 C-C_R            0    2.37955500   -1.67449100    8.83812800 L
 C-C_R            0  -17.40820100    3.62849900   -6.25893600 L
 C-C_R            0   -7.93976500   -1.88348200   -5.32022500 L
 C-C_R            0   -6.71477000   -3.06013800   -1.98037300 L
 C-C_R            0    0.49310700    1.56845100    2.23104200 H
 C-C_R            0  -13.07763900   -3.40004000    6.77333400 L
 C-C_R            0   -5.89913900   -5.23531600    0.97012200 L
 C-C_R            0   -4.94772200   -7.27738600    4.05524300 L
 C-C_R            0   -1.65578200    4.87387500   -4.14875900 L
 C-C_R            0  -14.70366500    0.84136100    0.18634600 L
 C-C_R            0   -3.86220200   -7.82095400    7.92429600 L
 C-C_R            0   15.96228800    0.70322100    8.74950900 L
 C-C_R            0   10.22263700    9.72703400   -7.49800800 L
 C-C_R            0    6.29205100    0.96196400   -6.48008400 L
 C-C_R            0   13.65046000    3.53465100    1.86541200 L
 C-C_R            0   15.84663600    1.61845100    5.21790800 L
 C-C_R            0    8.46513700   -2.65369100   -0.24516100 L
 C-C_R            0   12.35070200    7.59398000   -4.62365000 L
 C-C_R            0   13.72154300    5.88320400   -1.46142700 L
 C-C_R            0   10.11172700   -5.72152300    6.55118200 L
 C-C_R            0    2.00309700   12.56191000   -7.28457300 L
 C-C_R            0  -10.83955100  -13.22120600    7.91092900 L
 C-C_R            0   -0.39847600   -2.53117800   -9.35705000 L
 C-C_R            0    5.22321400    9.41089500   -0.81710400 L
 C-C_R            0  -11.69106000  -10.82323500    0.67815900 L
 C-C_R            0    3.15737300   -9.41784700    3.22262300 L
 C-C_R            0    6.79862000    5.93279600    5.72675900 L
 C-C_R            0  -13.50755600   -7.73038500   -6.28632900 L
 C-C_R            0    1.36871700   -6.19597700   -3.24056500 L
 C-C_R            0  -11.05421800    8.93857900   -7.26089700 L
 C-C_R            0    3.28091700  -10.84430300    6.73681000 L
 C-C_R            0  -14.40206200   -5.17260600   -9.10385600 L
 C-C_R            0  -10.11643000    7.53812200   -3.66940800 L
 C-C_R            0   -8.51343400    6.96345600    0.05661500 L
 C-C_R            0    2.05654800   -8.35043000   -0.15984200 L
 C-C_R            0  -10.74150000  -13.01825400    3.99297500 L
 C-C_R            0   -7.91163900    4.68967500    3.02385900 L
 C-C_R            0   -6.62703900    2.95527000    6.00073500 L
 C-C_R            0    0.18215700   -4.98576600   -6.51739800 L
 C-C_R            0  -12.81698500   -8.81244300   -2.45541200 L
 C-C_R            0   -6.45925600    0.82087400    9.16962500 L
 C-C_R            0   16.41201800   -8.95513000    5.89911300 L
 C-C_R            0   12.55751400    0.07243600  -10.31083600 L
 C-C_R            0    3.73421100   10.95351800   -4.13133000 L
 C-C_R            0   16.16249300   -5.88748600   -1.64935500 L
 C-C_R            0   16.93546100   -8.28042600    1.47279600 L
 C-C_R            0    6.47584300    7.18595200    2.25244800 L
 C-C_R            0   14.24270400   -2.15731700   -7.78543700 L
 C-C_R            0   15.14257100   -3.79446400   -4.56902000 L
 C-C_R            0    7.85972100    3.57579200    8.79602700 L
 C-C_R            0    8.73214600   -4.76467500  -11.68694400 L
 C-C_R            0  -15.56855400    2.66055200   10.80216200 L
 C-C_R            0   -3.63319200   15.19040900   -5.81649200 L
 C-C_R            0   10.65971000   -8.18976700   -4.97054100 L
 C-C_R            0  -17.18241300    6.23036300    4.16856300 L
 C-C_R            0    1.30646900    7.88838200    7.66689900 L
 C-C_R            0   11.98344000  -11.63091400    1.76856000 L
 C-C_R            0  -19.55724500    9.93884000   -2.11193900 L
 C-C_R            0   -0.25830900   11.69841400    1.01172900 L
 C-C_R            0   -4.41341100   -7.33176700  -10.06540500 L
 C-C_R            0   -2.19234000    5.30603800   10.36464000 L
 C-C_R            0  -16.53017000   11.15493000   -5.67164100 L
 C-C_R            0   -7.80124300  -10.02379800   -7.14889600 L
 C-C_R            0   -2.99299800  -10.85870800   -3.44164000 L
 C-C_R            0   -3.23731600    9.25281800    4.04583400 L
 C-C_R            0  -12.02595000    4.65230100    8.31059400 L