%nprocshared=32
%mem=32GB
%chk=monomer-S1-opt-freq.chk
#p opt freq oniom(td=(root=1,nstates=6)/cam-b3lyp/tzvp:uff) geom=connectivity

Title Card Required

0 1 0 1 0 1
 O-O_R            0    5.96000000   12.72600000    2.14100000 L
 O-O_R            0   20.91800000   31.97200000   18.22200000 L
 O-O_R            0   24.82100000   20.17600000    1.25300000 L
 O-O_R            0    4.39800000   12.72600000    8.92900000 L
 O-O_R            0   22.47900000   31.97200000   11.43400000 L
 O-O_R            0   21.69800000   20.17600000   14.82800000 L
 O-O_R            0    2.83700000   12.72600000   15.71600000 L
 O-O_R            0   24.04000000   31.97200000    4.64600000 L
 O-O_R            0   23.26000000   20.17600000    8.04000000 L
 O-O_R            0    5.96000000   27.62600000    2.14100000 L
 O-O_R            0   20.91800000   17.07300000   18.22200000 L
 O-O_R            0   24.82100000   35.07500000    1.25300000 L
 O-O_R            0    5.17900000   24.52300000    5.53500000 L
 O-O_R            0    4.39800000   27.62600000    8.92900000 L
 O-O_R            0   22.47900000   17.07300000   11.43400000 L
 O-O_R            0   21.69800000   35.07500000   14.82800000 L
 O-O_R            0    3.61800000   24.52300000   12.32200000 L
 O-O_R            0    2.83700000   27.62600000   15.71600000 L
 O-O_R            0   24.04000000   17.07300000    4.64600000 L
 O-O_R            0   23.26000000   35.07500000    8.04000000 L
 O-O_R            0    2.05600000   24.52300000   19.11000000 L
 O-O_R            0   20.91800000    2.17300000   18.22200000 L
 O-O_R            0   24.82100000    5.27600000    1.25300000 L
 O-O_R            0    5.17900000    9.62300000    5.53500000 L
 O-O_R            0   22.47900000    2.17300000   11.43400000 L
 O-O_R            0   21.69800000    5.27600000   14.82800000 L
 O-O_R            0    3.61800000    9.62300000   12.32200000 L
 O-O_R            0   24.04000000    2.17300000    4.64600000 L
 O-O_R            0   23.26000000    5.27600000    8.04000000 L
 O-O_R            0    2.05600000    9.62300000   19.11000000 L
 O-O_R            0   16.48000000   12.72600000    2.14100000 L
 O-O_R            0   10.39700000   31.97200000   18.22200000 L
 O-O_R            0   14.30100000   20.17600000    1.25300000 L
 O-O_R            0   14.91900000   12.72600000    8.92900000 L
 O-O_R            0   11.95900000   31.97200000   11.43400000 L
 O-O_R            0   11.17800000   20.17600000   14.82800000 L
 O-O_R            0   13.35700000   12.72600000   15.71600000 L
 O-O_R            0   13.52000000   31.97200000    4.64600000 L
 O-O_R            0   12.73900000   20.17600000    8.04000000 L
 O-O_R            0   16.48000000   27.62600000    2.14100000 L
 O-O_R            0   10.39700000   17.07300000   18.22200000 L
 O-O_R            0   14.30100000   35.07500000    1.25300000 L
 O-O_R            0   15.69900000   24.52300000    5.53500000 L
 O-O_R            0   14.91900000   27.62600000    8.92900000 L
 O-O_R            0   11.95900000   17.07300000   11.43400000 H
 O-O_R            0   11.17800000   35.07500000   14.82800000 L
 O-O_R            0   14.13800000   24.52300000   12.32200000 L
 O-O_R            0   13.35700000   27.62600000   15.71600000 L
 O-O_R            0   13.52000000   17.07300000    4.64600000 L
 O-O_R            0   12.73900000   35.07500000    8.04000000 L
 O-O_R            0   12.57700000   24.52300000   19.11000000 L
 O-O_R            0   10.39700000    2.17300000   18.22200000 L
 O-O_R            0   14.30100000    5.27600000    1.25300000 L
 O-O_R            0   15.69900000    9.62300000    5.53500000 L
 O-O_R            0   11.95900000    2.17300000   11.43400000 L
 O-O_R            0   11.17800000    5.27600000   14.82800000 L
 O-O_R            0   14.13800000    9.62300000   12.32200000 L
 O-O_R            0   13.52000000    2.17300000    4.64600000 L
 O-O_R            0   12.73900000    5.27600000    8.04000000 L
 O-O_R            0   12.57700000    9.62300000   19.11000000 L
 O-O_R            0   27.00000000   12.72600000    2.14100000 L
 O-O_R            0   -0.12300000   31.97200000   18.22200000 L
 O-O_R            0    3.78000000   20.17600000    1.25300000 L
 O-O_R            0   25.43900000   12.72600000    8.92900000 L
 O-O_R            0    1.43800000   31.97200000   11.43400000 L
 O-O_R            0    0.65800000   20.17600000   14.82800000 L
 O-O_R            0   23.87800000   12.72600000   15.71600000 L
 O-O_R            0    3.00000000   31.97200000    4.64600000 L
 O-O_R            0    2.21900000   20.17600000    8.04000000 L
 O-O_R            0   27.00000000   27.62600000    2.14100000 L
 O-O_R            0   -0.12300000   17.07300000   18.22200000 L
 O-O_R            0    3.78000000   35.07500000    1.25300000 L
 O-O_R            0   26.22000000   24.52300000    5.53500000 L
 O-O_R            0   25.43900000   27.62600000    8.92900000 L
 O-O_R            0    1.43800000   17.07300000   11.43400000 L
 O-O_R            0    0.65800000   35.07500000   14.82800000 L
 O-O_R            0   24.65800000   24.52300000   12.32200000 L
 O-O_R            0   23.87800000   27.62600000   15.71600000 L
 O-O_R            0    3.00000000   17.07300000    4.64600000 L
 O-O_R            0    2.21900000   35.07500000    8.04000000 L
 O-O_R            0   23.09700000   24.52300000   19.11000000 L
 O-O_R            0   -0.12300000    2.17300000   18.22200000 L
 O-O_R            0    3.78000000    5.27600000    1.25300000 L
 O-O_R            0   26.22000000    9.62300000    5.53500000 L
 O-O_R            0    1.43800000    2.17300000   11.43400000 L
 O-O_R            0    0.65800000    5.27600000   14.82800000 L
 O-O_R            0   24.65800000    9.62300000   12.32200000 L
 O-O_R            0    3.00000000    2.17300000    4.64600000 L
 O-O_R            0    2.21900000    5.27600000    8.04000000 L
 O-O_R            0   23.09700000    9.62300000   19.11000000 L
 O-O_R            0   -0.24200000   12.79700000    1.20400000 L
 O-O_R            0   27.11900000   31.90100000   19.15900000 L
 O-O_R            0   31.02200000   20.24700000    2.19000000 L
 O-O_R            0   -1.80300000   12.79700000    7.99200000 L
 O-O_R            0   28.68000000   31.90100000   12.37100000 L
 O-O_R            0   27.90000000   20.24700000   15.76500000 L
 O-O_R            0   -3.36400000   12.79700000   14.77900000 L
 O-O_R            0   30.24200000   31.90100000    5.58400000 L
 O-O_R            0   29.46100000   20.24700000    8.97700000 L
 O-O_R            0   -0.24200000   27.69700000    1.20400000 L
 O-O_R            0   27.11900000   17.00200000   19.15900000 L
 O-O_R            0   31.02200000   35.14600000    2.19000000 L
 O-O_R            0   -1.02200000   24.45200000    4.59800000 L
 O-O_R            0   -1.80300000   27.69700000    7.99200000 L
 O-O_R            0   28.68000000   17.00200000   12.37100000 L
 O-O_R            0   27.90000000   35.14600000   15.76500000 L
 O-O_R            0   -2.58400000   24.45200000   11.38500000 L
 O-O_R            0   -3.36400000   27.69700000   14.77900000 L
 O-O_R            0   30.24200000   17.00200000    5.58400000 L
 O-O_R            0   29.46100000   35.14600000    8.97700000 L
 O-O_R            0   -4.14500000   24.45200000   18.17300000 L
 O-O_R            0   27.11900000    2.10200000   19.15900000 L
 O-O_R            0   31.02200000    5.34700000    2.19000000 L
 O-O_R            0   -1.02200000    9.55200000    4.59800000 L
 O-O_R            0   28.68000000    2.10200000   12.37100000 L
 O-O_R            0   27.90000000    5.34700000   15.76500000 L
 O-O_R            0   -2.58400000    9.55200000   11.38500000 L
 O-O_R            0   30.24200000    2.10200000    5.58400000 L
 O-O_R            0   29.46100000    5.34700000    8.97700000 L
 O-O_R            0   -4.14500000    9.55200000   18.17300000 L
 O-O_R            0   10.27900000   12.79700000    1.20400000 L
 O-O_R            0   16.59900000   31.90100000   19.15900000 L
 O-O_R            0   20.50200000   20.24700000    2.19000000 L
 O-O_R            0    8.71800000   12.79700000    7.99200000 L
 O-O_R            0   18.16000000   31.90100000   12.37100000 L
 O-O_R            0   17.37900000   20.24700000   15.76500000 L
 O-O_R            0    7.15600000   12.79700000   14.77900000 L
 O-O_R            0   19.72100000   31.90100000    5.58400000 L
 O-O_R            0   18.94000000   20.24700000    8.97700000 L
 O-O_R            0   10.27900000   27.69700000    1.20400000 L
 O-O_R            0   16.59900000   17.00200000   19.15900000 L
 O-O_R            0   20.50200000   35.14600000    2.19000000 L
 O-O_R            0    9.49800000   24.45200000    4.59800000 L
 O-O_R            0    8.71800000   27.69700000    7.99200000 L
 O-O_R            0   18.16000000   17.00200000   12.37100000 H
 O-O_R            0   17.37900000   35.14600000   15.76500000 L
 O-O_R            0    7.93700000   24.45200000   11.38500000 L
 O-O_R            0    7.15600000   27.69700000   14.77900000 L
 O-O_R            0   19.72100000   17.00200000    5.58400000 L
 O-O_R            0   18.94000000   35.14600000    8.97700000 L
 O-O_R            0    6.37600000   24.45200000   18.17300000 L
 O-O_R            0   16.59900000    2.10200000   19.15900000 L
 O-O_R            0   20.50200000    5.34700000    2.19000000 L
 O-O_R            0    9.49800000    9.55200000    4.59800000 L
 O-O_R            0   18.16000000    2.10200000   12.37100000 L
 O-O_R            0   17.37900000    5.34700000   15.76500000 L
 O-O_R            0    7.93700000    9.55200000   11.38500000 L
 O-O_R            0   19.72100000    2.10200000    5.58400000 L
 O-O_R            0   18.94000000    5.34700000    8.97700000 L
 O-O_R            0    6.37600000    9.55200000   18.17300000 L
 O-O_R            0   20.79900000   12.79700000    1.20400000 L
 O-O_R            0    6.07800000   31.90100000   19.15900000 L
 O-O_R            0    9.98100000   20.24700000    2.19000000 L
 O-O_R            0   19.23800000   12.79700000    7.99200000 L
 O-O_R            0    7.63900000   31.90100000   12.37100000 L
 O-O_R            0    6.85900000   20.24700000   15.76500000 L
 O-O_R            0   17.67700000   12.79700000   14.77900000 L
 O-O_R            0    9.20100000   31.90100000    5.58400000 L
 O-O_R            0    8.42000000   20.24700000    8.97700000 L
 O-O_R            0   20.79900000   27.69700000    1.20400000 L
 O-O_R            0    6.07800000   17.00200000   19.15900000 L
 O-O_R            0    9.98100000   35.14600000    2.19000000 L
 O-O_R            0   20.01900000   24.45200000    4.59800000 L
 O-O_R            0   19.23800000   27.69700000    7.99200000 L
 O-O_R            0    7.63900000   17.00200000   12.37100000 L
 O-O_R            0    6.85900000   35.14600000   15.76500000 L
 O-O_R            0   18.45700000   24.45200000   11.38500000 L
 O-O_R            0   17.67700000   27.69700000   14.77900000 L
 O-O_R            0    9.20100000   17.00200000    5.58400000 L
 O-O_R            0    8.42000000   35.14600000    8.97700000 L
 O-O_R            0   16.89600000   24.45200000   18.17300000 L
 O-O_R            0    6.07800000    2.10200000   19.15900000 L
 O-O_R            0    9.98100000    5.34700000    2.19000000 L
 O-O_R            0   20.01900000    9.55200000    4.59800000 L
 O-O_R            0    7.63900000    2.10200000   12.37100000 L
 O-O_R            0    6.85900000    5.34700000   15.76500000 L
 O-O_R            0   18.45700000    9.55200000   11.38500000 L
 O-O_R            0    9.20100000    2.10200000    5.58400000 L
 O-O_R            0    8.42000000    5.34700000    8.97700000 L
 O-O_R            0   16.89600000    9.55200000   18.17300000 L
 N-N_R            0    2.54000000    9.61600000    1.48500000 L
 N-N_R            0   24.33800000   35.08200000   18.87800000 L
 N-N_R            0   28.24100000   17.06600000    1.90900000 L
 N-N_R            0    0.97800000    9.61600000    8.27300000 L
 N-N_R            0   25.89900000   35.08200000   12.09000000 L
 N-N_R            0   25.11800000   17.06600000   15.48400000 L
 N-N_R            0   -0.58300000    9.61600000   15.06000000 L
 N-N_R            0   27.46000000   35.08200000    5.30300000 L
 N-N_R            0   26.68000000   17.06600000    8.69600000 L
 N-N_R            0    2.54000000   24.51600000    1.48500000 L
 N-N_R            0   24.33800000   20.18300000   18.87800000 L
 N-N_R            0   28.24100000   31.96600000    1.90900000 L
 N-N_R            0    1.75900000   27.63200000    4.87900000 L
 N-N_R            0    0.97800000   24.51600000    8.27300000 L
 N-N_R            0   25.89900000   20.18300000   12.09000000 L
 N-N_R            0   25.11800000   31.96600000   15.48400000 L
 N-N_R            0    0.19800000   27.63200000   11.66600000 L
 N-N_R            0   -0.58300000   24.51600000   15.06000000 L
 N-N_R            0   27.46000000   20.18300000    5.30300000 L
 N-N_R            0   26.68000000   31.96600000    8.69600000 L
 N-N_R            0   -1.36400000   27.63200000   18.45400000 L
 N-N_R            0   24.33800000    5.28300000   18.87800000 L
 N-N_R            0   28.24100000    2.16700000    1.90900000 L
 N-N_R            0    1.75900000   12.73300000    4.87900000 L
 N-N_R            0   25.89900000    5.28300000   12.09000000 L
 N-N_R            0   25.11800000    2.16700000   15.48400000 L
 N-N_R            0    0.19800000   12.73300000   11.66600000 L
 N-N_R            0   27.46000000    5.28300000    5.30300000 L
 N-N_R            0   26.68000000    2.16700000    8.69600000 L
 N-N_R            0   -1.36400000   12.73300000   18.45400000 L
 N-N_R            0   13.06000000    9.61600000    1.48500000 L
 N-N_R            0   13.81700000   35.08200000   18.87800000 L
 N-N_R            0   17.72100000   17.06600000    1.90900000 L
 N-N_R            0   11.49900000    9.61600000    8.27300000 L
 N-N_R            0   15.37900000   35.08200000   12.09000000 L
 N-N_R            0   14.59800000   17.06600000   15.48400000 L
 N-N_R            0    9.93700000    9.61600000   15.06000000 L
 N-N_R            0   16.94000000   35.08200000    5.30300000 L
 N-N_R            0   16.15900000   17.06600000    8.69600000 L
 N-N_R            0   13.06000000   24.51600000    1.48500000 L
 N-N_R            0   13.81700000   20.18300000   18.87800000 L
 N-N_R            0   17.72100000   31.96600000    1.90900000 L
 N-N_R            0   12.27900000   27.63200000    4.87900000 L
 N-N_R            0   11.49900000   24.51600000    8.27300000 L
 N-N_R            0   15.37900000   20.18300000   12.09000000 H
 N-N_R            0   14.59800000   31.96600000   15.48400000 L
 N-N_R            0   10.71800000   27.63200000   11.66600000 L
 N-N_R            0    9.93700000   24.51600000   15.06000000 L
 N-N_R            0   16.94000000   20.18300000    5.30300000 L
 N-N_R            0   16.15900000   31.96600000    8.69600000 L
 N-N_R            0    9.15700000   27.63200000   18.45400000 L
 N-N_R            0   13.81700000    5.28300000   18.87800000 L
 N-N_R            0   17.72100000    2.16700000    1.90900000 L
 N-N_R            0   12.27900000   12.73300000    4.87900000 L
 N-N_R            0   15.37900000    5.28300000   12.09000000 L
 N-N_R            0   14.59800000    2.16700000   15.48400000 L
 N-N_R            0   10.71800000   12.73300000   11.66600000 L
 N-N_R            0   16.94000000    5.28300000    5.30300000 L
 N-N_R            0   16.15900000    2.16700000    8.69600000 L
 N-N_R            0    9.15700000   12.73300000   18.45400000 L
 N-N_R            0   23.58000000    9.61600000    1.48500000 L
 N-N_R            0    3.29700000   35.08200000   18.87800000 L
 N-N_R            0    7.20000000   17.06600000    1.90900000 L
 N-N_R            0   22.01900000    9.61600000    8.27300000 L
 N-N_R            0    4.85800000   35.08200000   12.09000000 L
 N-N_R            0    4.07800000   17.06600000   15.48400000 L
 N-N_R            0   20.45800000    9.61600000   15.06000000 L
 N-N_R            0    6.41900000   35.08200000    5.30300000 L
 N-N_R            0    5.63900000   17.06600000    8.69600000 L
 N-N_R            0   23.58000000   24.51600000    1.48500000 L
 N-N_R            0    3.29700000   20.18300000   18.87800000 L
 N-N_R            0    7.20000000   31.96600000    1.90900000 L
 N-N_R            0   22.80000000   27.63200000    4.87900000 L
 N-N_R            0   22.01900000   24.51600000    8.27300000 L
 N-N_R            0    4.85800000   20.18300000   12.09000000 L
 N-N_R            0    4.07800000   31.96600000   15.48400000 L
 N-N_R            0   21.23800000   27.63200000   11.66600000 L
 N-N_R            0   20.45800000   24.51600000   15.06000000 L
 N-N_R            0    6.41900000   20.18300000    5.30300000 L
 N-N_R            0    5.63900000   31.96600000    8.69600000 L
 N-N_R            0   19.67700000   27.63200000   18.45400000 L
 N-N_R            0    3.29700000    5.28300000   18.87800000 L
 N-N_R            0    7.20000000    2.16700000    1.90900000 L
 N-N_R            0   22.80000000   12.73300000    4.87900000 L
 N-N_R            0    4.85800000    5.28300000   12.09000000 L
 N-N_R            0    4.07800000    2.16700000   15.48400000 L
 N-N_R            0   21.23800000   12.73300000   11.66600000 L
 N-N_R            0    6.41900000    5.28300000    5.30300000 L
 N-N_R            0    5.63900000    2.16700000    8.69600000 L
 N-N_R            0   19.67700000   12.73300000   18.45400000 L
 H-H_             0    2.27800000    8.80100000    1.40700000 L
 H-H_             0   24.59900000   35.89700000   18.95600000 L
 H-H_             0   28.50200000   16.25100000    1.98700000 L
 H-H_             0    0.71700000    8.80100000    8.19500000 L
 H-H_             0   26.16000000   35.89700000   12.16800000 L
 H-H_             0   25.38000000   16.25100000   15.56200000 L
 H-H_             0   -0.84400000    8.80100000   14.98200000 L
 H-H_             0   27.72200000   35.89700000    5.38100000 L
 H-H_             0   26.94100000   16.25100000    8.77400000 L
 H-H_             0    2.27800000   23.70100000    1.40700000 L
 H-H_             0   24.59900000   20.99800000   18.95600000 L
 H-H_             0   28.50200000   31.15000000    1.98700000 L
 H-H_             0    1.49800000   28.44800000    4.80100000 L
 H-H_             0    0.71700000   23.70100000    8.19500000 L
 H-H_             0   26.16000000   20.99800000   12.16800000 L
 H-H_             0   25.38000000   31.15000000   15.56200000 L
 H-H_             0   -0.06400000   28.44800000   11.58800000 L
 H-H_             0   -0.84400000   23.70100000   14.98200000 L
 H-H_             0   27.72200000   20.99800000    5.38100000 L
 H-H_             0   26.94100000   31.15000000    8.77400000 L
 H-H_             0   -1.62500000   28.44800000   18.37600000 L
 H-H_             0   24.59900000    6.09800000   18.95600000 L
 H-H_             0   28.50200000    1.35100000    1.98700000 L
 H-H_             0    1.49800000   13.54800000    4.80100000 L
 H-H_             0   26.16000000    6.09800000   12.16800000 L
 H-H_             0   25.38000000    1.35100000   15.56200000 L
 H-H_             0   -0.06400000   13.54800000   11.58800000 L
 H-H_             0   27.72200000    6.09800000    5.38100000 L
 H-H_             0   26.94100000    1.35100000    8.77400000 L
 H-H_             0   -1.62500000   13.54800000   18.37600000 L
 H-H_             0   12.79900000    8.80100000    1.40700000 L
 H-H_             0   14.07900000   35.89700000   18.95600000 L
 H-H_             0   17.98200000   16.25100000    1.98700000 L
 H-H_             0   11.23700000    8.80100000    8.19500000 L
 H-H_             0   15.64000000   35.89700000   12.16800000 L
 H-H_             0   14.85900000   16.25100000   15.56200000 L
 H-H_             0    9.67600000    8.80100000   14.98200000 L
 H-H_             0   17.20100000   35.89700000    5.38100000 L
 H-H_             0   16.42100000   16.25100000    8.77400000 L
 H-H_             0   12.79900000   23.70100000    1.40700000 L
 H-H_             0   14.07900000   20.99800000   18.95600000 L
 H-H_             0   17.98200000   31.15000000    1.98700000 L
 H-H_             0   12.01800000   28.44800000    4.80100000 L
 H-H_             0   11.23700000   23.70100000    8.19500000 L
 H-H_             0   15.64000000   20.99800000   12.16800000 H
 H-H_             0   14.85900000   31.15000000   15.56200000 L
 H-H_             0   10.45700000   28.44800000   11.58800000 L
 H-H_             0    9.67600000   23.70100000   14.98200000 L
 H-H_             0   17.20100000   20.99800000    5.38100000 L
 H-H_             0   16.42100000   31.15000000    8.77400000 L
 H-H_             0    8.89500000   28.44800000   18.37600000 L
 H-H_             0   14.07900000    6.09800000   18.95600000 L
 H-H_             0   17.98200000    1.35100000    1.98700000 L
 H-H_             0   12.01800000   13.54800000    4.80100000 L
 H-H_             0   15.64000000    6.09800000   12.16800000 L
 H-H_             0   14.85900000    1.35100000   15.56200000 L
 H-H_             0   10.45700000   13.54800000   11.58800000 L
 H-H_             0   17.20100000    6.09800000    5.38100000 L
 H-H_             0   16.42100000    1.35100000    8.77400000 L
 H-H_             0    8.89500000   13.54800000   18.37600000 L
 H-H_             0   23.31900000    8.80100000    1.40700000 L
 H-H_             0    3.55800000   35.89700000   18.95600000 L
 H-H_             0    7.46100000   16.25100000    1.98700000 L
 H-H_             0   21.75800000    8.80100000    8.19500000 L
 H-H_             0    5.12000000   35.89700000   12.16800000 L
 H-H_             0    4.33900000   16.25100000   15.56200000 L
 H-H_             0   20.19700000    8.80100000   14.98200000 L
 H-H_             0    6.68100000   35.89700000    5.38100000 L
 H-H_             0    5.90000000   16.25100000    8.77400000 L
 H-H_             0   23.31900000   23.70100000    1.40700000 L
 H-H_             0    3.55800000   20.99800000   18.95600000 L
 H-H_             0    7.46100000   31.15000000    1.98700000 L
 H-H_             0   22.53800000   28.44800000    4.80100000 L
 H-H_             0   21.75800000   23.70100000    8.19500000 L
 H-H_             0    5.12000000   20.99800000   12.16800000 L
 H-H_             0    4.33900000   31.15000000   15.56200000 L
 H-H_             0   20.97700000   28.44800000   11.58800000 L
 H-H_             0   20.19700000   23.70100000   14.98200000 L
 H-H_             0    6.68100000   20.99800000    5.38100000 L
 H-H_             0    5.90000000   31.15000000    8.77400000 L
 H-H_             0   19.41600000   28.44800000   18.37600000 L
 H-H_             0    3.55800000    6.09800000   18.95600000 L
 H-H_             0    7.46100000    1.35100000    1.98700000 L
 H-H_             0   22.53800000   13.54800000    4.80100000 L
 H-H_             0    5.12000000    6.09800000   12.16800000 L
 H-H_             0    4.33900000    1.35100000   15.56200000 L
 H-H_             0   20.97700000   13.54800000   11.58800000 L
 H-H_             0    6.68100000    6.09800000    5.38100000 L
 H-H_             0    5.90000000    1.35100000    8.77400000 L
 H-H_             0   19.41600000   13.54800000   18.37600000 L
 C-C_R            0    1.95400000   11.91700000    1.44200000 L
 C-C_R            0   24.92400000   32.78100000   18.92100000 L
 C-C_R            0   28.82700000   19.36700000    1.95200000 L
 C-C_R            0    0.39200000   11.91700000    8.23000000 L
 C-C_R            0   26.48500000   32.78100000   12.13300000 L
 C-C_R            0   25.70400000   19.36700000   15.52700000 L
 C-C_R            0   -1.16900000   11.91700000   15.01700000 L
 C-C_R            0   28.04600000   32.78100000    5.34500000 L
 C-C_R            0   27.26600000   19.36700000    8.73900000 L
 C-C_R            0    1.95400000   26.81700000    1.44200000 L
 C-C_R            0   24.92400000   17.88200000   18.92100000 L
 C-C_R            0   28.82700000   34.26600000    1.95200000 L
 C-C_R            0    1.17300000   25.33200000    4.83600000 L
 C-C_R            0    0.39200000   26.81700000    8.23000000 L
 C-C_R            0   26.48500000   17.88200000   12.13300000 L
 C-C_R            0   25.70400000   34.26600000   15.52700000 L
 C-C_R            0   -0.38800000   25.33200000   11.62300000 L
 C-C_R            0   -1.16900000   26.81700000   15.01700000 L
 C-C_R            0   28.04600000   17.88200000    5.34500000 L
 C-C_R            0   27.26600000   34.26600000    8.73900000 L
 C-C_R            0   -1.95000000   25.33200000   18.41100000 L
 C-C_R            0   24.92400000    2.98200000   18.92100000 L
 C-C_R            0   28.82700000    4.46700000    1.95200000 L
 C-C_R            0    1.17300000   10.43200000    4.83600000 L
 C-C_R            0   26.48500000    2.98200000   12.13300000 L
 C-C_R            0   25.70400000    4.46700000   15.52700000 L
 C-C_R            0   -0.38800000   10.43200000   11.62300000 L
 C-C_R            0   28.04600000    2.98200000    5.34500000 L
 C-C_R            0   27.26600000    4.46700000    8.73900000 L
 C-C_R            0   -1.95000000   10.43200000   18.41100000 L
 C-C_R            0   12.47400000   11.91700000    1.44200000 L
 C-C_R            0   14.40300000   32.78100000   18.92100000 L
 C-C_R            0   18.30700000   19.36700000    1.95200000 L
 C-C_R            0   10.91300000   11.91700000    8.23000000 L
 C-C_R            0   15.96500000   32.78100000   12.13300000 L
 C-C_R            0   15.18400000   19.36700000   15.52700000 L
 C-C_R            0    9.35100000   11.91700000   15.01700000 L
 C-C_R            0   17.52600000   32.78100000    5.34500000 L
 C-C_R            0   16.74500000   19.36700000    8.73900000 L
 C-C_R            0   12.47400000   26.81700000    1.44200000 L
 C-C_R            0   14.40300000   17.88200000   18.92100000 L
 C-C_R            0   18.30700000   34.26600000    1.95200000 L
 C-C_R            0   11.69300000   25.33200000    4.83600000 L
 C-C_R            0   10.91300000   26.81700000    8.23000000 L
 C-C_R            0   15.96500000   17.88200000   12.13300000 H
 C-C_R            0   15.18400000   34.26600000   15.52700000 L
 C-C_R            0   10.13200000   25.33200000   11.62300000 L
 C-C_R            0    9.35100000   26.81700000   15.01700000 L
 C-C_R            0   17.52600000   17.88200000    5.34500000 L
 C-C_R            0   16.74500000   34.26600000    8.73900000 L
 C-C_R            0    8.57100000   25.33200000   18.41100000 L
 C-C_R            0   14.40300000    2.98200000   18.92100000 L
 C-C_R            0   18.30700000    4.46700000    1.95200000 L
 C-C_R            0   11.69300000   10.43200000    4.83600000 L
 C-C_R            0   15.96500000    2.98200000   12.13300000 L
 C-C_R            0   15.18400000    4.46700000   15.52700000 L
 C-C_R            0   10.13200000   10.43200000   11.62300000 L
 C-C_R            0   17.52600000    2.98200000    5.34500000 L
 C-C_R            0   16.74500000    4.46700000    8.73900000 L
 C-C_R            0    8.57100000   10.43200000   18.41100000 L
 C-C_R            0   22.99400000   11.91700000    1.44200000 L
 C-C_R            0    3.88300000   32.78100000   18.92100000 L
 C-C_R            0    7.78600000   19.36700000    1.95200000 L
 C-C_R            0   21.43300000   11.91700000    8.23000000 L
 C-C_R            0    5.44400000   32.78100000   12.13300000 L
 C-C_R            0    4.66400000   19.36700000   15.52700000 L
 C-C_R            0   19.87200000   11.91700000   15.01700000 L
 C-C_R            0    7.00500000   32.78100000    5.34500000 L
 C-C_R            0    6.22500000   19.36700000    8.73900000 L
 C-C_R            0   22.99400000   26.81700000    1.44200000 L
 C-C_R            0    3.88300000   17.88200000   18.92100000 L
 C-C_R            0    7.78600000   34.26600000    1.95200000 L
 C-C_R            0   22.21400000   25.33200000    4.83600000 L
 C-C_R            0   21.43300000   26.81700000    8.23000000 L
 C-C_R            0    5.44400000   17.88200000   12.13300000 L
 C-C_R            0    4.66400000   34.26600000   15.52700000 L
 C-C_R            0   20.65200000   25.33200000   11.62300000 L
 C-C_R            0   19.87200000   26.81700000   15.01700000 L
 C-C_R            0    7.00500000   17.88200000    5.34500000 L
 C-C_R            0    6.22500000   34.26600000    8.73900000 L
 C-C_R            0   19.09100000   25.33200000   18.41100000 L
 C-C_R            0    3.88300000    2.98200000   18.92100000 L
 C-C_R            0    7.78600000    4.46700000    1.95200000 L
 C-C_R            0   22.21400000   10.43200000    4.83600000 L
 C-C_R            0    5.44400000    2.98200000   12.13300000 L
 C-C_R            0    4.66400000    4.46700000   15.52700000 L
 C-C_R            0   20.65200000   10.43200000   11.62300000 L
 C-C_R            0    7.00500000    2.98200000    5.34500000 L
 C-C_R            0    6.22500000    4.46700000    8.73900000 L
 C-C_R            0   19.09100000   10.43200000   18.41100000 L
 C-C_R            0    3.87800000    9.83800000    1.72000000 L
 C-C_R            0   22.99900000   34.86000000   18.64200000 L
 C-C_R            0   26.90300000   17.28800000    1.67400000 L
 C-C_R            0    2.31700000    9.83800000    8.50800000 L
 C-C_R            0   24.56100000   34.86000000   11.85500000 L
 C-C_R            0   23.78000000   17.28800000   15.24900000 L
 C-C_R            0    0.75500000    9.83800000   15.29500000 L
 C-C_R            0   26.12200000   34.86000000    5.06700000 L
 C-C_R            0   25.34100000   17.28800000    8.46100000 L
 C-C_R            0    3.87800000   24.73800000    1.72000000 L
 C-C_R            0   22.99900000   19.96100000   18.64200000 L
 C-C_R            0   26.90300000   32.18700000    1.67400000 L
 C-C_R            0    3.09700000   27.41100000    5.11400000 L
 C-C_R            0    2.31700000   24.73800000    8.50800000 L
 C-C_R            0   24.56100000   19.96100000   11.85500000 L
 C-C_R            0   23.78000000   32.18700000   15.24900000 L