%nprocshared=16
%mem=16GB
%chk=no-s0-freq.chk
#p freq=intmodes cam-b3lyp tzvp geom=connectivity

Title Card Required

0 1
 O                 -0.58562383    2.14215170   -0.09183977
 O                 -1.29989883    7.80557570    2.57021323
 N                 -4.01623683    4.69420370    1.76249423
 H                 -4.99536983    4.82653170    1.94281623
 C                 -1.85282883    5.63189270    1.80399123
 C                 -3.61801683    3.49098270    1.22230323
 C                 -3.17814883    5.76110170    2.01351523
 C                 -0.93127783    6.73779970    2.11124823
 C                 -1.27934683    4.34457470    1.25726623
 H                 -0.69264383    4.53516770    0.35817923
 H                 -0.55585383    3.91168370    1.95655023
 C                 -2.31659183    3.29181970    0.93197023
 C                 -1.74868883    2.10694370    0.27011023
 C                 -3.90112583    6.97622870    2.49373023
 H                 -4.97804183    6.85044870    2.37507523
 H                 -3.68608183    7.17866370    3.53977423
 H                 -3.57657883    7.85414370    1.94647923
 C                  0.53827417    6.50303270    1.86035823
 H                  1.07874917    7.41475470    2.08994723
 H                  0.91106017    5.69219770    2.48896523
 H                  0.72805917    6.21415270    0.82812023
 C                 -2.52820483    0.83264770    0.03808223
 H                 -2.90328383    0.41251670    0.97179023
 H                 -3.37542283    0.98027770   -0.62927577
 H                 -1.84011583    0.12759470   -0.41665277
 C                 -4.76634383    2.54289870    1.03546223
 H                 -4.92160683    2.29040770   -0.00946877
 H                 -4.59789983    1.62083570    1.58158423
 H                 -5.69104983    2.98165670    1.40820023

 1 13 2.0
 2 8 2.0
 3 4 1.0 6 1.5 7 1.5
 4
 5 7 2.0 8 1.0 9 1.0
 6 12 2.0 26 1.0
 7 14 1.0
 8 18 1.0
 9 10 1.0 11 1.0 12 1.0
 10
 11
 12 13 1.0
 13 22 1.0
 14 15 1.0 16 1.0 17 1.0
 15
 16
 17
 18 19 1.0 20 1.0 21 1.0
 19
 20
 21
 22 23 1.0 24 1.0 25 1.0
 23
 24
 25
 26 27 1.0 28 1.0 29 1.0
 27
 28
 29




