%nprocshared=16
%mem=16GB
%chk=no-s1-freq.chk
#p freq=intmodes td=(root=1,nstates=6) cam-b3lyp tzvp geom=connectivity

Title Card Required

0 1
 O                  0.13268156    0.80307260    0.00000000
 O                 -0.65475644   -4.64643840   -2.90825200
 N                 -3.31329744   -1.51321440   -2.12829700
 H                 -4.29633444   -1.61086440   -2.33933600
 C                 -1.16897144   -2.49101740   -2.12934200
 C                 -2.92696144   -0.29497240   -1.62757300
 C                 -2.55625944   -2.60369640   -2.35244600
 C                 -0.25562444   -3.57391040   -2.46363400
 C                 -0.65065944   -1.24724740   -1.55468500
 H                 -0.03080144   -1.41109740   -0.65687300
 H                  0.14343756   -0.84273840   -2.21435800
 C                 -1.59046844   -0.16329440   -1.23242100
 C                 -0.98826344    0.93634760   -0.49262300
 C                 -3.29143744   -3.81134340   -2.81835900
 H                 -4.36436744   -3.61549940   -2.82653400
 H                 -2.97666244   -4.12502340   -3.81145200
 H                 -3.10054644   -4.65392240   -2.16071400
 C                  1.22609256   -3.37652740   -2.23159600
 H                  1.72598956   -4.30173440   -2.49831100
 H                  1.63101956   -2.56710740   -2.84056900
 H                  1.44348156   -3.14418240   -1.18903000
 C                 -1.68762744    2.26446360   -0.31089700
 H                 -2.03208244    2.69166460   -1.25179200
 H                 -2.54532544    2.17675060    0.35661000
 H                 -0.96607144    2.93495460    0.14390400
 C                 -4.02651344    0.70372060   -1.50152400
 H                 -4.19670444    1.00252760   -0.46777500
 H                 -3.81686344    1.60726060   -2.07076900
 H                 -4.96532844    0.29432360   -1.87630500

 1 13 2.0
 2 8 2.0
 3 4 1.0 6 1.5 7 1.5
 4
 5 7 1.5 8 1.0 9 1.0
 6 12 1.5 26 1.0
 7 14 1.0
 8 18 1.0
 9 10 1.0 11 1.0 12 1.0
 10
 11
 12 13 1.0
 13 22 1.0
 14 15 1.0 16 1.0 17 1.0
 15
 16
 17
 18 19 1.0 20 1.0 21 1.0
 19
 20
 21
 22 23 1.0 24 1.0 25 1.0
 23
 24
 25
 26 27 1.0 28 1.0 29 1.0
 27
 28
 29




