%nprocshared=16
%mem=16GB
%chk=no-s2-freq.chk
#p freq=intmodes td=(root=2,nstates=6) cam-b3lyp tzvp geom=connectivity

Title Card Required

0 1
 O                 -0.51675977    1.24301672    0.00000000
 O                 -1.13187777    6.87872672    2.56784500
 N                 -3.91660377    3.81946972    1.88554700
 H                 -4.90164977    3.97293672    2.04909800
 C                 -1.73034177    4.70213772    1.91205600
 C                 -3.56853077    2.56188372    1.45667700
 C                 -3.11715177    4.88521172    2.08579800
 C                 -0.77541377    5.75694772    2.21896200
 C                 -1.25171977    3.41485672    1.40657000
 H                 -0.62553977    3.51080272    0.50084700
 H                 -0.47220977    3.01775172    2.08457400
 C                 -2.22578577    2.34940972    1.12970900
 C                 -1.63632077    1.17183272    0.50906700
 C                 -3.80384177    6.14082872    2.49562200
 H                 -4.88574677    6.01977272    2.42540800
 H                 -3.54691277    6.42819272    3.51420900
 H                 -3.50153977    6.97050972    1.86471700
 C                  0.70121323    5.46396672    2.07167700
 H                  1.24509723    6.33346172    2.42370800
 H                  1.01499223    4.59060072    2.64377800
 H                  0.96401623    5.28638672    1.02820600
 C                 -2.34180277   -0.16459328    0.49563300
 H                 -2.70355877   -0.46003928    1.48022100
 H                 -3.18714777   -0.15839828   -0.19231800
 H                 -1.62097977   -0.89411228    0.14248400
 C                 -4.70819477    1.61348772    1.29620000
 H                 -4.83742777    1.29856072    0.26014300
 H                 -4.57210077    0.71279572    1.89029100
 H                 -5.64509177    2.07257872    1.61552200

 1 13 2.0
 2 8 2.0
 3 4 1.0 6 1.5 7 1.5
 4
 5 7 1.5 8 1.0 9 1.0
 6 12 1.5 26 1.0
 7 14 1.0
 8 18 1.0
 9 10 1.0 11 1.0 12 1.0
 10
 11
 12 13 1.0
 13 22 1.0
 14 15 1.0 16 1.0 17 1.0
 15
 16
 17
 18 19 1.0 20 1.0 21 1.0
 19
 20
 21
 22 23 1.0 24 1.0 25 1.0
 23
 24
 25
 26 27 1.0 28 1.0 29 1.0
 27
 28
 29






